 vasp.5.4.4.18Apr17-6-g9f103f2a35 (build Nov 30 2020 22:55:02) complex

 executed on             LinuxIFC date 2023.09.08  21:28:21

 INCAR:
 POTCAR:    PAW_PBE Co 02Aug2007
 POTCAR:    PAW_PBE Pt 04Feb2005
 POTCAR:    PAW_PBE H 15Jun2001

 POTCAR:    PAW_PBE Co 02Aug2007
   VRHFIN =Co: d8 s1

   TITEL  = PAW_PBE Co 02Aug2007
   POMASS =   58.933; ZVAL   =    9.000    mass and valenz
   ENMAX  =  267.968; ENMIN  =  200.976 eV

 POTCAR:    PAW_PBE Pt 04Feb2005
   VRHFIN =Pt: s1d9

   TITEL  = PAW_PBE Pt 04Feb2005
   POMASS =  195.080; ZVAL   =   10.000    mass and valenz
   ENMAX  =  230.283; ENMIN  =  172.712 eV

 POTCAR:    PAW_PBE H 15Jun2001
   VRHFIN =H: ultrasoft test

   TITEL  = PAW_PBE H 15Jun2001
   POMASS =    1.000; ZVAL   =    1.000    mass and valenz
   ENMAX  =  250.000; ENMIN  =  200.000 eV

 Optimization of the real space projectors (new method)

 maximal supplied QI-value         = 16.25
 optimisation between [QCUT,QGAM] = [ 11.86, 23.89] = [ 39.41,159.82] Ry
 Optimized for a Real-space Cutoff    1.33 Angstroem

   l    n(q)    QCUT    max X(q) W(low)/X(q) W(high)/X(q)  e(spline)
   2      9    11.864    65.824    0.22E-03    0.53E-03    0.26E-06
   2      9    11.864    61.429    0.22E-03    0.53E-03    0.26E-06
   0      9    11.864    56.174    0.21E-03    0.32E-04    0.15E-06
   0      9    11.864    31.263    0.19E-03    0.30E-04    0.14E-06
   1      9    11.864    19.828    0.63E-04    0.30E-03    0.16E-06
   1      9    11.864    15.139    0.49E-04    0.25E-03    0.13E-06
 Optimization of the real space projectors (new method)

[...]

   l    n(q)    QCUT    max X(q) W(low)/X(q) W(high)/X(q)  e(spline)
   2     10    11.920    66.195    0.79E-04    0.18E-03    0.24E-06
   2     10    11.920    64.643    0.81E-04    0.19E-03    0.24E-06
   0     11    11.920    95.520    0.28E-04    0.54E-04    0.18E-06
   0     11    11.920    63.403    0.27E-04    0.52E-04    0.17E-06
   1     10    11.920    19.961    0.18E-04    0.11E-03    0.23E-06
   1     10    11.920    13.289    0.25E-04    0.87E-04    0.19E-06
 Optimization of the real space projectors (new method)

 maximal supplied QI-value         = 34.20
 optimisation between [QCUT,QGAM] = [ 11.97, 23.94] = [ 40.13,160.53] Ry
 Optimized for a Real-space Cutoff    1.18 Angstroem

   l    n(q)    QCUT    max X(q) W(low)/X(q) W(high)/X(q)  e(spline)
   0      8    11.971    19.460    0.15E-03    0.31E-03    0.25E-06
   0      8    11.971    12.209    0.13E-03    0.29E-03    0.25E-06
   1      8    11.971     4.655    0.22E-03    0.24E-03    0.21E-06
  PAW_PBE Co 02Aug2007                  :
  PAW_PBE Pt 04Feb2005                  :
  PAW_PBE H 15Jun2001                   :

 POSCAR: PtM\(2)
  positions in cartesian coordinates
 exchange correlation table for  LEXCH =        8
   RHO(1)=    0.500       N(1)  =     2000
   RHO(2)=  100.500       N(2)  =     4000

 ion  position               nearest neighbor table
   1  0.785  0.869  0.311-  55 2.42  20 2.42  39 2.42  73 2.63   3 2.63   2 2.64  40 2.64  56 2.64
                            57 2.64  65 2.64  29 2.64  72 2.64
   2  0.035  0.869  0.311-  39 2.42  49 2.42  52 2.42  77 2.62  67 2.63  65 2.63   1 2.64   3 2.64
                            56 2.64  23 2.64  41 2.65  33 2.65
   3  0.035  0.620  0.312-  39 2.42  12 2.42  60 2.42  77 2.62  66 2.62   1 2.63  73 2.64   2 2.64
                            40 2.64  15 2.64   9 2.64  41 2.65
   4  0.787  0.868  0.051-  21 2.41  62 2.41  19 2.41   5 2.64   6 2.64  42 2.64  59 2.64  58 2.64
                            30 2.64
   5  0.037  0.868  0.051-  54 2.41  35 2.41  62 2.41  58 2.64  24 2.64   4 2.64  43 2.64   6 2.64
                            34 2.64
   6  0.037  0.618  0.051-  32 2.41  54 2.41  21 2.41  43 2.64  10 2.64  18 2.64   4 2.64  42 2.64
                             5 2.64
   7  0.620  0.202  0.136-  28 2.41  30 2.41  58 2.41  55 2.50  63 2.50  64 2.51  62 2.64  11 2.64
                            37 2.64  19 2.64  45 2.64  22 2.64
   8  0.370  0.952  0.136-  16 2.41  24 2.41  59 2.41  53 2.50  26 2.50  50 2.51  38 2.64  25 2.64
                            44 2.64  19 2.64  37 2.64  35 2.64
   9  0.035  0.369  0.311-  12 2.42  61 2.42  46 2.42  71 2.62  66 2.63  68 2.63  13 2.63  33 2.63
                            40 2.64   3 2.64  47 2.64  15 2.65
  10  0.037  0.368  0.051-  38 2.41  32 2.41  31 2.41   6 2.64  48 2.64  34 2.64  18 2.64  42 2.64
                            16 2.64
  11  0.870  0.202  0.136-  48 2.41  58 2.41  34 2.41  61 2.50  49 2.50  63 2.52  35 2.64   7 2.64
                            22 2.64  38 2.64  31 2.64  62 2.64
  12  0.952  0.536  0.226-   9 2.42   3 2.42  40 2.42  21 2.50  31 2.50  32 2.51  39 2.64  20 2.64
                            61 2.64  46 2.64  60 2.65  51 2.65
  13  0.284  0.120  0.311-  46 2.42  26 2.42  53 2.42  69 2.63  74 2.63   9 2.63  71 2.63  33 2.63
                            23 2.64  15 2.65  29 2.65  57 2.65
  14  0.534  0.619  0.313-  36 2.42  50 2.43  51 2.43  27 2.62  41 2.62  80 2.63  47 2.63  23 2.65
                            40 2.65  57 2.65  76 2.67  75 2.67
  15  0.285  0.370  0.312-  60 2.42  64 2.42  46 2.42  74 2.62  41 2.63  66 2.63  27 2.63   3 2.64
                            13 2.65  29 2.65   9 2.65  79 2.65
  16  0.287  0.118  0.051-   8 2.41  37 2.41  38 2.41  18 2.64  30 2.64  59 2.64  34 2.64  10 2.64
                            24 2.64
  17  0.536  0.618  0.051-  22 2.41  25 2.41  44 2.41  43 2.64  28 2.64  24 2.64  59 2.64  48 2.64
                            42 2.64
  18  0.287  0.368  0.051-  37 2.41  45 2.41  32 2.41  16 2.64   6 2.64  43 2.64  10 2.64  28 2.64
                            30 2.64
  19  0.620  0.952  0.136-  30 2.41  59 2.41   4 2.41  55 2.50  20 2.50  53 2.51  62 2.64  21 2.64
                            37 2.64   7 2.64  25 2.64   8 2.64
  20  0.702  0.785  0.226-  40 2.42   1 2.42  57 2.42  25 2.50  19 2.50  21 2.51  51 2.64  12 2.64
                            53 2.64  50 2.64  55 2.64  39 2.64
  21  0.870  0.702  0.136-   4 2.41  42 2.41   6 2.41  12 2.50  39 2.50  20 2.51  31 2.64  19 2.64
                            62 2.64  25 2.64  32 2.64  54 2.64
  22  0.620  0.452  0.136-  17 2.41  28 2.41  48 2.41  63 2.50  51 2.50  36 2.51  31 2.64  25 2.64
                            45 2.64  11 2.64  44 2.64   7 2.64
  23  0.284  0.870  0.312-  26 2.41  52 2.42  50 2.42  69 2.63  67 2.63  33 2.64  13 2.64  57 2.64
                             2 2.64  41 2.65  14 2.65  75 2.65
  24  0.286  0.868  0.051-  44 2.41   8 2.41  35 2.41  34 2.64   5 2.64  17 2.64  43 2.64  59 2.64
                            16 2.64
  25  0.620  0.702  0.136-  59 2.41  17 2.41  42 2.41  20 2.50  51 2.50  50 2.51  22 2.64  31 2.64
                             8 2.64  44 2.64  19 2.64  21 2.64
  26  0.202  0.035  0.226-  23 2.41  13 2.42  33 2.42  35 2.50  38 2.50   8 2.50  53 2.64  49 2.64
                            52 2.64  50 2.64  46 2.65  61 2.65
  27  0.534  0.371  0.313-  36 2.42  64 2.43  63 2.43  14 2.62  41 2.62  78 2.62  15 2.63  47 2.63
                            56 2.65  29 2.65  79 2.67  76 2.67
  28  0.537  0.368  0.051-   7 2.41  22 2.41  45 2.41  30 2.64  58 2.64  17 2.64  18 2.64  48 2.64
                            43 2.64
  29  0.536  0.119  0.311-  64 2.42  55 2.42  53 2.42  78 2.62  72 2.63  56 2.63  74 2.64   1 2.64
                            57 2.64  15 2.65  13 2.65  27 2.65
  30  0.537  0.118  0.051-  19 2.41   7 2.41  37 2.41  28 2.64  16 2.64  59 2.64  58 2.64  18 2.64
                             4 2.64
  31  0.870  0.452  0.136-  42 2.41  48 2.41  10 2.41  61 2.49  12 2.50  51 2.52  22 2.64  21 2.64
                            25 2.64  11 2.64  32 2.64  38 2.64
  32  0.120  0.452  0.136-   6 2.41  10 2.41  18 2.41  46 2.49  12 2.51  60 2.51  38 2.64  54 2.64
                            21 2.64  37 2.64  45 2.64  31 2.64
  33  0.035  0.120  0.311-  61 2.42  49 2.42  26 2.42  67 2.63  70 2.63  71 2.63   9 2.63  13 2.63
                            23 2.64  47 2.64  56 2.65   2 2.65
  34  0.037  0.118  0.051-  35 2.41  38 2.41  11 2.41  24 2.64  10 2.64  48 2.64  16 2.64  58 2.64
                             5 2.64
  35  0.120  0.952  0.136-  34 2.41   5 2.41  24 2.41  26 2.50  49 2.51  52 2.51  11 2.64  38 2.64
                            54 2.64  44 2.64   8 2.64  62 2.64
  36  0.452  0.536  0.226-  27 2.42  14 2.42  41 2.43  44 2.50  45 2.50  22 2.51  51 2.63  64 2.63
                            63 2.63  50 2.63  60 2.63  52 2.63
  37  0.370  0.202  0.136-  18 2.41  16 2.41  30 2.41  53 2.50  46 2.50  64 2.51   7 2.64  19 2.64
                             8 2.64  45 2.64  32 2.64  38 2.64
  38  0.120  0.202  0.136-  10 2.41  34 2.41  16 2.41  26 2.50  46 2.50  61 2.51   8 2.64  35 2.64
                            32 2.64  11 2.64  37 2.64  31 2.64
  39  0.952  0.785  0.226-   2 2.42   3 2.42   1 2.42  62 2.50  21 2.50  54 2.50  60 2.64  12 2.64
                            49 2.64  52 2.64  55 2.64  20 2.64
  40  0.785  0.619  0.312-  20 2.42  51 2.42  12 2.42  80 2.62  68 2.62  73 2.63   1 2.64  57 2.64
                            47 2.64   3 2.64   9 2.64  14 2.65
  41  0.286  0.619  0.312-  52 2.43  36 2.43  60 2.43  27 2.62  14 2.62  77 2.63  15 2.63  23 2.65
                             2 2.65   3 2.65  79 2.66  75 2.67
  42  0.787  0.618  0.051-  31 2.41  21 2.41  25 2.41  48 2.64  10 2.64   4 2.64   6 2.64  59 2.64
                            17 2.64
  43  0.287  0.618  0.051-  45 2.41  44 2.41  54 2.41   6 2.64  18 2.64  17 2.64   5 2.64  24 2.64
                            28 2.64
  44  0.370  0.702  0.136-  24 2.41  43 2.41  17 2.41  50 2.50  36 2.50  52 2.51  54 2.64  25 2.64
                            45 2.64   8 2.64  35 2.64  22 2.64
  45  0.370  0.452  0.136-  43 2.41  18 2.41  28 2.41  64 2.50  36 2.50  60 2.51  22 2.64  44 2.64
                            37 2.64   7 2.64  54 2.64  32 2.64
  46  0.202  0.286  0.226-  13 2.42   9 2.42  15 2.42  32 2.49  37 2.50  38 2.50  64 2.64  12 2.64
                            60 2.64  53 2.64  26 2.65  61 2.65
  47  0.784  0.370  0.312-  51 2.42  63 2.42  61 2.42  70 2.62  68 2.63  14 2.63  27 2.63  40 2.64
                            33 2.64   9 2.64  56 2.65  76 2.66
  48  0.787  0.368  0.051-  11 2.41  31 2.41  22 2.41  10 2.64  42 2.64  34 2.64  58 2.64  28 2.64
                            17 2.64
  49  0.952  0.036  0.226-   2 2.42  33 2.42  56 2.42  11 2.50  62 2.50  35 2.51  55 2.64  39 2.64
                            26 2.64  61 2.64  52 2.65  63 2.65
  50  0.452  0.785  0.226-  57 2.42  23 2.42  14 2.43  44 2.50   8 2.51  25 2.51  51 2.62  36 2.63
                            52 2.64  20 2.64  26 2.64  53 2.65
  51  0.701  0.536  0.226-  47 2.42  40 2.42  14 2.43  25 2.50  22 2.50  31 2.52  50 2.62  36 2.63
                            20 2.64  63 2.64  61 2.64  12 2.65
  52  0.203  0.785  0.226-  23 2.42   2 2.42  41 2.43  54 2.50  35 2.51  44 2.51  60 2.63  36 2.63
                            50 2.64  39 2.64  26 2.64  49 2.65
  53  0.452  0.036  0.226-  57 2.42  29 2.42  13 2.42  37 2.50   8 2.50  19 2.51  55 2.64  20 2.64
                            26 2.64  46 2.64  50 2.65  64 2.65
[...]
      8.91939      7.17666      4.98150        -0.002345      0.006904      0.014993
     10.23174      4.90375      4.98027         0.009851     -0.009222      0.032358
      6.28401      7.17826      4.98155        -0.000103      0.008582      0.018298
      4.96253      0.32477      4.97490         0.004335      0.006221      0.021693
      4.96835      6.41701      2.99223         0.000297      0.005340     -0.019473
      7.60135      0.32455      4.97271         0.002158      0.002070      0.028004
      8.91239      1.08837      6.85281         0.018746      0.002641     -0.003830
     10.24161      7.94894      6.85232         0.002516      0.012399     -0.000168
      8.93102      1.07962      1.12774        -0.000191      0.002372      0.008170
     10.25010      7.93928      1.12746        -0.006345      0.002659      0.004340
      4.97065      4.90379      4.98077        -0.009089     -0.012192      0.026601
[...]
      6.27447      8.72491      8.99247         0.006053     -0.022987     -0.017362
     11.56558      4.14687      8.99626        -0.045206     -0.014743     -0.017167
      8.91953      8.72569      8.99384        -0.004724     -0.022672     -0.019259
     10.24151      1.85508      8.99181        -0.016482      0.010631     -0.011931
      2.31709      1.86166      8.99596         0.004541     -0.018111     -0.004353
     11.55440      8.72174      8.99982        -0.013024     -0.011466     -0.009638
     12.87651      6.43307      9.00259         0.003074     -0.028155     -0.011672
      4.95308      1.85699      8.99275         0.016205      0.004303     -0.010402
      7.59675      6.46793      9.05146         0.002069      0.000693     -0.036852
      8.94827      4.12716      9.05831         0.005046      0.017833     -0.046164
      4.94028      6.44161      8.99434         0.039943     -0.002961     -0.004037
      7.59665      1.84213      8.99523         0.008699      0.013446     -0.009238
      6.24945      4.12997      9.05487        -0.006160      0.011743     -0.033224
     10.25381      6.44159      8.99391        -0.031116     -0.006848     -0.006590
      7.61851      4.92110     10.04248        -0.025957     -0.014480      0.101255
    total drift:                               -0.018672      0.011294     -0.162835

  FREE ENERGIE OF THE ION-ELECTRON SYSTEM (eV)
  free  energy   TOTEN  =      -553.70508175 eV

  energy  without entropy=     -553.70508175  energy(sigma->0) =     -553.70508175

 d Force =-0.6521212E-03[-0.304E-02, 0.173E-02]  d Energy =-0.5354469E-03-0.117E-03
 d Force =-0.1061078E+02[-0.106E+02,-0.106E+02]  d Ewald  =-0.1061103E+02 0.248E-03

 Finite differences progress:
  Degree of freedom:   3/  3
  Displacement:        2/  2
  Total:               6/  6

 SECOND DERIVATIVES (NOT SYMMETRIZED)
              81X         81Y         81Z
 81X    -1.411720    0.141384    0.224010
 81Y     0.121752   -1.563129    0.093018
 81Z     0.223565    0.080198   -5.301169

 Eigenvectors and eigenvalues of the dynamical matrix

   1 f  =   36.043713 THz   226.469328 2PiTHz 1202.288814 cm-1   149.064868 meV
             X         Y         Z           dx          dy          dz
     12.879117  7.946377  6.850150            0           0           0
      4.954358  7.948459  6.852629            0           0           0
      3.637078  5.665476  6.855451            0           0           0
     12.890693  7.937732  1.127411            0           0           0
      4.969706  7.939116  1.128531            0           0           0
      3.649957  5.651776  1.129190            0           0           0
      7.608781  1.843362  2.991653            0           0           0
      8.928348  8.703137  2.991182            0           0           0
      2.318576  3.374672  6.851951            0           0           0
      2.330136  3.366551  1.129481            0           0           0
     10.248209  1.844221  2.991308            0           0           0
     12.881884  4.899574  4.975171            0           0           0
      3.635554  1.096818  6.850789            0           0           0
      8.910877  5.658842  6.875349            0           0           0
      4.966987  3.384309  6.859795            0           0           0
      3.651346  1.080639  1.128571            0           0           0
      8.928223  5.652563  1.127107            0           0           0
      4.969471  3.366256  1.129791            0           0           0
     11.568373  8.702678  2.990806            0           0           0
     11.559262  7.181990  4.973355            0           0           0
     12.887726  6.416690  2.991438            0           0           0
      8.928769  4.130875  2.990941            0           0           0
      7.598857  7.958522  6.855197            0           0           0
      7.608717  7.939412  1.128257            0           0           0
     10.247638  6.416886  2.990068            0           0           0
      2.321993  0.322788  4.971779            0           0           0
      7.600521  3.389656  6.877582            0           0           0
      7.610141  3.365160  1.128439            0           0           0
      6.284377  1.088202  6.851902            0           0           0
      6.290737  1.079887  1.128229            0           0           0
     11.567580  4.131448  2.992071            0           0           0
      3.648521  4.130274  2.993297            0           0           0
      1.002013  1.096328  6.849512            0           0           0
      1.011385  1.080376  1.128547            0           0           0
      6.287836  8.703604  2.991992            0           0           0
      7.602772  4.897953  4.982252            0           0           0
      4.969213  1.843763  2.992524            0           0           0
      2.328654  1.843751  2.992483            0           0           0
     14.203489  7.182042  4.973737            0           0           0
     11.558823  5.664501  6.854919            0           0           0
      6.287953  5.659677  6.874396            0           0           0
     11.569967  5.652273  1.127480            0           0           0
      6.288786  5.652014  1.128720            0           0           0
      7.607949  6.417220  2.991241            0           0           0
      6.289230  4.130398  2.992423            0           0           0
      3.649577  2.618017  4.974639            0           0           0
     10.234890  3.382640  6.858074            0           0           0
     10.251112  3.366005  1.127934            0           0           0
     10.240168  0.325219  4.975142            0           0           0
      8.919387  7.176657  4.981499            0           0           0
     10.231744  4.903749  4.980273            0           0           0
      6.284008  7.178256  4.981548            0           0           0
      4.962533  0.324770  4.974902            0           0           0
      4.968348  6.417007  2.992234            0           0           0
      7.601352  0.324554  4.972706            0           0           0
      8.912395  1.088373  6.852809            0           0           0
     10.241612  7.948937  6.852322            0           0           0
      8.931018  1.079620  1.127737            0           0           0
     10.250101  7.939278  1.127458            0           0           0
      4.970655  4.903789  4.980768            0           0           0
[...]
      6.274472  8.724913  8.992471            0           0           0
     11.565576  4.146871  8.996256            0           0           0
      8.919530  8.725694  8.993841            0           0           0
     10.241509  1.855081  8.991807            0           0           0
      2.317093  1.861661  8.995962            0           0           0
     11.554400  8.721738  8.999825            0           0           0
     12.876508  6.433067  9.002588            0           0           0
      4.953082  1.856988  8.992754            0           0           0
      7.596748  6.467929  9.051458            0           0           0
      8.948268  4.127162  9.058306            0           0           0
      4.940282  6.441609  8.994337            0           0           0
      7.596652  1.842133  8.995225            0           0           0
      6.249454  4.129972  9.054872            0           0           0
     10.253815  6.441589  8.993907            0           0           0
      7.618515  4.921101 10.057483    -0.056509   -0.021057    0.998180

[...]

   3 f  =   17.971444 THz   112.917914 2PiTHz  599.462833 cm-1    74.323945 meV
             X         Y         Z           dx          dy          dz
     12.879117  7.946377  6.850150            0           0           0
      4.954358  7.948459  6.852629            0           0           0
      3.637078  5.665476  6.855451            0           0           0
     12.890693  7.937732  1.127411            0           0           0
      4.969706  7.939116  1.128531            0           0           0
      3.649957  5.651776  1.129190            0           0           0
      7.608781  1.843362  2.991653            0           0           0
      8.928348  8.703137  2.991182            0           0           0
      2.318576  3.374672  6.851951            0           0           0
      2.330136  3.366551  1.129481            0           0           0
     10.248209  1.844221  2.991308            0           0           0
     12.881884  4.899574  4.975171            0           0           0
      3.635554  1.096818  6.850789            0           0           0
      8.910877  5.658842  6.875349            0           0           0
      4.966987  3.384309  6.859795            0           0           0
      3.651346  1.080639  1.128571            0           0           0
      8.928223  5.652563  1.127107            0           0           0
      4.969471  3.366256  1.129791            0           0           0
     11.568373  8.702678  2.990806            0           0           0
     11.559262  7.181990  4.973355            0           0           0
     12.887726  6.416690  2.991438            0           0           0
      8.928769  4.130875  2.990941            0           0           0
      7.598857  7.958522  6.855197            0           0           0
      7.608717  7.939412  1.128257            0           0           0
     10.247638  6.416886  2.990068            0           0           0
      2.321993  0.322788  4.971779            0           0           0
      7.600521  3.389656  6.877582            0           0           0
      7.610141  3.365160  1.128439            0           0           0
      6.284377  1.088202  6.851902            0           0           0
      6.290737  1.079887  1.128229            0           0           0
     11.567580  4.131448  2.992071            0           0           0
      3.648521  4.130274  2.993297            0           0           0
      1.002013  1.096328  6.849512            0           0           0
      1.011385  1.080376  1.128547            0           0           0
      6.287836  8.703604  2.991992            0           0           0
      7.602772  4.897953  4.982252            0           0           0
      4.969213  1.843763  2.992524            0           0           0
      2.328654  1.843751  2.992483            0           0           0
     14.203489  7.182042  4.973737            0           0           0
     11.558823  5.664501  6.854919            0           0           0
      6.287953  5.659677  6.874396            0           0           0
     11.569967  5.652273  1.127480            0           0           0
      6.288786  5.652014  1.128720            0           0           0
      7.607949  6.417220  2.991241            0           0           0
      6.289230  4.130398  2.992423            0           0           0
      3.649577  2.618017  4.974639            0           0           0
     10.234890  3.382640  6.858074            0           0           0
     10.251112  3.366005  1.127934            0           0           0
     10.240168  0.325219  4.975142            0           0           0
      8.919387  7.176657  4.981499            0           0           0
     10.231744  4.903749  4.980273            0           0           0
      6.284008  7.178256  4.981548            0           0           0
      4.962533  0.324770  4.974902            0           0           0
      4.968348  6.417007  2.992234            0           0           0
      7.601352  0.324554  4.972706            0           0           0
      8.912395  1.088373  6.852809            0           0           0
     10.241612  7.948937  6.852322            0           0           0
      8.931018  1.079620  1.127737            0           0           0
     10.250101  7.939278  1.127458            0           0           0
      4.970655  4.903789  4.980768            0           0           0
[...]
      6.274472  8.724913  8.992471            0           0           0
     11.565576  4.146871  8.996256            0           0           0
      8.919530  8.725694  8.993841            0           0           0
     10.241509  1.855081  8.991807            0           0           0
      2.317093  1.861661  8.995962            0           0           0
     11.554400  8.721738  8.999825            0           0           0
     12.876508  6.433067  9.002588            0           0           0
      4.953082  1.856988  8.992754            0           0           0
      7.596748  6.467929  9.051458            0           0           0
      8.948268  4.127162  9.058306            0           0           0
      4.940282  6.441609  8.994337            0           0           0
      7.596652  1.842133  8.995225            0           0           0
      6.249454  4.129972  9.054872            0           0           0
     10.253815  6.441589  8.993907            0           0           0
      7.618515  4.921101 10.057483     0.867579    0.493723    0.059531

 Finite differences POTIM=  1.500000000000000E-002
  LATTYP: Found a hexagonal cell.
 ALAT       =    10.5600004196
 C/A-ratio  =     2.0833332505

  Lattice vectors:

 A1 = (   5.2800002098,  -9.1452286274,   0.0000000000)
 A2 = ( -10.5600004196,   0.0000000000,   0.0000000000)
 A3 = (   0.0000000000,   0.0000000000, -22.0000000000)

Analysis of symmetry for initial positions (statically):
 Subroutine PRICEL returns:
 Original cell was already a primitive cell.

[...]

The static configuration has the point symmetry C_1 .

Analysis of symmetry for dynamics (positions and initial velocities):
 Subroutine PRICEL returns:
 Original cell was already a primitive cell.

[...]

The dynamic configuration has the point symmetry C_1 .

Analysis of constrained symmetry for selective dynamics:
 Subroutine PRICEL returns:
 Original cell was already a primitive cell.

[...]

The constrained configuration has the point symmetry C_1 .

Analysis of structural, dynamic, and magnetic symmetry:
 Subroutine PRICEL returns:
 Original cell was already a primitive cell.

 Routine SETGRP: Setting up the symmetry group for a
 hexagonal supercell.

 Subroutine GETGRP returns: Found  1 space group operations
 (whereof  1 operations were pure point group operations)
 out of a pool of 24 trial point group operations.

The magnetic configuration has the point symmetry C_1 .

 Subroutine INISYM returns: Found  1 space group operations
 (whereof  1 operations are pure point group operations),
 and found     1 'primitive' translations

 KPOINTS: mesh auto

Automatic generation of k-mesh.
Space group operators:
 irot       det(A)        alpha          n_x          n_y          n_z        tau_x        tau_y        tau_z
    1     1.000000     0.000001     1.000000     0.000000     0.000000     0.000000     0.000000     0.000000

 Subroutine IBZKPT returns following result:

 Found      4 irreducible k-points:

 Following reciprocal coordinates:
            Coordinates               Weight
  0.000000  0.000000  0.000000      1.000000
  0.500000  0.000000  0.000000      1.000000
  0.000000  0.500000  0.000000      1.000000
  0.500000  0.500000  0.000000      1.000000

 Following cartesian coordinates:
            Coordinates               Weight
  0.000000  0.000000  0.000000      1.000000
  0.047348 -0.027337  0.000000      1.000000
  0.000000  0.054673  0.000000      1.000000
  0.047348  0.027337  0.000000      1.000000

 TETIRR: Found     12 inequivalent tetrahedra from       24
 BZINTS: Fermi energy:  2.010676;737.000000 electrons
         Band energy:-499.734555;  BLOECHL correction: -0.383528