 vasp.5.4.4.18Apr17-6-g9f103f2a35 (build Nov 06 2019 15:09:28) complex

 executed on             LinuxIFC date 2023.08.07  10:54:27

 INCAR:
 POTCAR:    PAW_PBE Pt 04Feb2005
 POTCAR:    PAW_PBE H 15Jun2001
 POTCAR:    PAW_PBE Pt 04Feb2005
   VRHFIN =Pt: s1d9

   TITEL  = PAW_PBE Pt 04Feb2005
   POMASS =  195.080; ZVAL   =   10.000    mass and valenz
   ENMAX  =  230.283; ENMIN  =  172.712 eV

 POTCAR:    PAW_PBE H 15Jun2001
   VRHFIN =H: ultrasoft test

   TITEL  = PAW_PBE H 15Jun2001
   POMASS =    1.000; ZVAL   =    1.000    mass and valenz
   ENMAX  =  250.000; ENMIN  =  200.000 eV

 Optimization of the real space projectors (new method)

 maximal supplied QI-value         = 14.36
 optimisation between [QCUT,QGAM] = [ 11.92, 23.98] = [ 39.79,161.09] Ry
 Optimized for a Real-space Cutoff    1.49 Angstroem

   l    n(q)    QCUT    max X(q) W(low)/X(q) W(high)/X(q)  e(spline)
   2     10    11.920    66.195    0.79E-04    0.18E-03    0.24E-06
   2     10    11.920    64.643    0.81E-04    0.19E-03    0.24E-06
   0     11    11.920    95.520    0.28E-04    0.54E-04    0.18E-06
   0     11    11.920    63.403    0.27E-04    0.52E-04    0.17E-06
   1     10    11.920    19.961    0.18E-04    0.11E-03    0.23E-06
   1     10    11.920    13.289    0.25E-04    0.87E-04    0.19E-06
 Optimization of the real space projectors (new method)

 maximal supplied QI-value         = 34.20
 optimisation between [QCUT,QGAM] = [ 11.97, 23.94] = [ 40.13,160.53] Ry
 Optimized for a Real-space Cutoff    1.18 Angstroem

   l    n(q)    QCUT    max X(q) W(low)/X(q) W(high)/X(q)  e(spline)
   0      8    11.971    19.460    0.15E-03    0.31E-03    0.25E-06
   0      8    11.971    12.209    0.13E-03    0.29E-03    0.25E-06
   1      8    11.971     4.655    0.22E-03    0.24E-03    0.21E-06
  PAW_PBE Pt 04Feb2005                  :
  PAW_PBE H 15Jun2001                   :

 POSCAR: Pt   H
  positions in cartesian coordinates
 exchange correlation table for  LEXCH =        8
   RHO(1)=    0.500       N(1)  =     2000
   RHO(2)=  100.500       N(2)  =     4000

 VTST: version 3.2, (02/03/18)

 CHAIN: initializing optimizer

 OPT: Using VASP QUASI-newton optimizer
 CHAIN: Read ICHAIN            0
 CHAIN: Running the NEB
 NEB:          SPRING     -5.000000
 NEB:          LCLIMB      T
 NEB:     LTANGENTOLD      F
 NEB:           LDNEB      F
 NEB:        LDNEBORG      F
 NEB:        LNEBCELL      F
 NEB:          EFIRST      0.000000
 NEB:           ELAST      0.000000

 POSCAR: Pt   H
  positions in cartesian coordinates

 POSCAR: Pt111\(1\1\1)\(2)
  positions in cartesian coordinates

 ion  position               nearest neighbor table
   1  1.000  0.000  0.056-   5 2.64   9 2.64  13 2.64  29 2.64  57 2.64  37 2.64  42 2.87  14 2.87
                            54 2.87
   2  0.333  0.167  0.178-  30 2.64  26 2.64  38 2.64  42 2.64  14 2.64   6 2.64  11 2.83   7 2.87
                             9 2.87  21 2.87  13 2.87  15 2.90
   3  0.169  0.333  0.300-  15 2.60   7 2.60  43 2.62  39 2.64  27 2.65  31 2.66   8 2.80   6 2.87
                            48 2.87  14 2.88  10 2.90  12 3.32
   4  0.002  0.003  0.419-   8 2.62  16 2.62  32 2.65  40 2.65  12 2.66  60 2.68   7 2.82  27 2.86
                            63 2.89
   5  1.000  0.250  0.056-   1 2.64  45 2.64  33 2.64   9 2.64  29 2.64  25 2.64  14 2.87  10 2.87
                            18 2.87
   6  0.333  0.417  0.178-  26 2.64  62 2.64  10 2.64  34 2.64  14 2.64   2 2.64  43 2.87  45 2.87
                            49 2.87   9 2.87   3 2.87  15 2.88
   7  0.169  0.087  0.300-   3 2.60  15 2.61  11 2.63  27 2.64  35 2.66  63 2.67  16 2.82   4 2.82
                             2 2.87  14 2.87  42 2.89  12 3.31
   8  0.001  0.250  0.417-   4 2.62  48 2.64  32 2.64  36 2.65  28 2.65  12 2.69   3 2.80  27 2.85
                            31 2.85
   9  0.250  0.250  0.056-  21 2.64  13 2.64   1 2.64  49 2.64  45 2.64   5 2.64   2 2.87  14 2.87
                             6 2.87
  10  0.083  0.417  0.178-  34 2.64   6 2.64  46 2.64  14 2.64  18 2.64  22 2.64  31 2.83  39 2.84
                            33 2.87  45 2.87   5 2.87   3 2.90
  11  0.416  0.085  0.297-   7 2.63  19 2.63  35 2.64  15 2.64  23 2.65  47 2.66   2 2.83  30 2.84
                            38 2.84  24 2.85  16 2.87  20 2.88
  12  0.249  0.248  0.448-  66 1.76  65 1.83   4 2.66  16 2.68   8 2.69  52 2.70  24 2.71  48 2.71
                             7 3.31   3 3.32  15 3.32
  13  0.250  0.000  0.056-  21 2.64   9 2.64  17 2.64   1 2.64  37 2.64  41 2.64  38 2.87   2 2.87
                            42 2.87
  14  0.083  0.167  0.178-  42 2.64  54 2.64   6 2.64   2 2.64  10 2.64  18 2.64  27 2.83   5 2.87
                             1 2.87   9 2.87   7 2.87   3 2.88
  15  0.416  0.335  0.300-  43 2.60   3 2.60  55 2.61   7 2.61  11 2.64  19 2.64  24 2.81   6 2.88
                            26 2.90   2 2.90  52 3.26  12 3.32
  16  0.250  0.001  0.418-   4 2.62  40 2.64  24 2.64  20 2.65  44 2.65  12 2.68   7 2.82  11 2.87
                            35 2.87
  17  0.500  0.000  0.056-  29 2.64  25 2.64  13 2.64  21 2.64  41 2.64  53 2.64  58 2.87  30 2.87
                            38 2.87
  18  0.833  0.167  0.178-  54 2.64  58 2.64  22 2.64  10 2.64  30 2.64  14 2.64  31 2.83  27 2.84
                            23 2.84  25 2.87  29 2.87   5 2.87
  19  0.666  0.334  0.297-  55 2.63  11 2.63  59 2.64  15 2.64  23 2.64  31 2.66  26 2.83  30 2.84
                            22 2.84  24 2.85  64 2.87  28 2.88
  20  0.500  0.000  0.419-  44 2.64  28 2.64  24 2.65  32 2.65  16 2.65  56 2.65  23 2.87  47 2.88
                            11 2.88
  21  0.500  0.250  0.056-  25 2.64  61 2.64   9 2.64  13 2.64  49 2.64  17 2.64  30 2.87   2 2.87
                            26 2.87
  22  0.833  0.417  0.178-  50 2.64  26 2.64  30 2.64  18 2.64  46 2.64  10 2.64  59 2.83  31 2.84
                            19 2.84  61 2.87  25 2.87  33 2.87
  23  0.667  0.084  0.298-  47 2.64  31 2.64  19 2.64  11 2.65  51 2.65  27 2.65  30 2.84  18 2.84
                            58 2.84  32 2.86  28 2.87  20 2.87
  24  0.500  0.251  0.418-  64 2.64  16 2.64  28 2.64  20 2.65  52 2.70  12 2.71  15 2.81  19 2.85
                            11 2.85
  25  0.750  0.250  0.056-  17 2.64  21 2.64  29 2.64  61 2.64  33 2.64   5 2.64  18 2.87  22 2.87
                            30 2.87
  26  0.583  0.417  0.178-   6 2.64   2 2.64  22 2.64  30 2.64  62 2.64  50 2.64  19 2.83  55 2.87
                            49 2.87  61 2.87  21 2.87  15 2.90
  27  0.918  0.084  0.297-  63 2.63   7 2.64  31 2.64   3 2.65  51 2.65  23 2.65  14 2.83  54 2.84
                            18 2.84   8 2.85  32 2.86   4 2.86
  28  0.750  0.250  0.419-  36 2.64  20 2.64  24 2.64  32 2.64  64 2.65   8 2.65  23 2.87  31 2.88
                            19 2.88
  29  0.750  0.000  0.056-  17 2.64  25 2.64   5 2.64  53 2.64   1 2.64  57 2.64  54 2.87  18 2.87
                            58 2.87
  30  0.583  0.167  0.178-   2 2.64  38 2.64  58 2.64  26 2.64  22 2.64  18 2.64  11 2.84  19 2.84
                            23 2.84  21 2.87  17 2.87  25 2.87
  31  0.917  0.333  0.297-  27 2.64  39 2.64  59 2.64  23 2.64  19 2.66   3 2.66  10 2.83  18 2.83
                            22 2.84   8 2.85  36 2.87  28 2.88
  32  0.751  0.000  0.418-   8 2.64  56 2.64  28 2.64  60 2.64  20 2.65   4 2.65  23 2.86  27 2.86
                            51 2.86
  33  1.000  0.500  0.056-  37 2.64  41 2.64   5 2.64  45 2.64  25 2.64  61 2.64  10 2.87  46 2.87
                            22 2.87
  34  0.333  0.667  0.178-  62 2.64  10 2.64  58 2.64  46 2.64   6 2.64  38 2.64  47 2.83  39 2.83
                            41 2.87  45 2.87  53 2.87  43 2.89
  35  0.167  0.834  0.297-  11 2.64  47 2.64  63 2.65  59 2.65  39 2.66   7 2.66  40 2.82  38 2.83
                            42 2.83  46 2.83  16 2.87  44 2.88
  36  0.000  0.500  0.418-  48 2.64  28 2.64  44 2.64   8 2.65  64 2.65  40 2.65  39 2.86  31 2.87
                            59 2.87
  37  1.000  0.750  0.056-  33 2.64  41 2.64  61 2.64  57 2.64  13 2.64   1 2.64  46 2.87  50 2.87
                            42 2.87
  38  0.333  0.917  0.178-  58 2.64  30 2.64   2 2.64  42 2.64  34 2.64  46 2.64  35 2.83  47 2.84
                            11 2.84  13 2.87  17 2.87  41 2.87
  39  0.168  0.583  0.297-  43 2.64   3 2.64  47 2.64  31 2.64  35 2.66  59 2.66  34 2.83  10 2.84
                            46 2.85  36 2.86  44 2.87  48 2.91
  40  0.000  0.751  0.415-  16 2.64  64 2.64  60 2.65  44 2.65   4 2.65  36 2.65  35 2.82  63 2.83
                            59 2.83
  41  0.250  0.750  0.056-  45 2.64  33 2.64  37 2.64  53 2.64  17 2.64  13 2.64  34 2.87  46 2.87
                            38 2.87
  42  0.083  0.917  0.178-  14 2.64   2 2.64  38 2.64  46 2.64  50 2.64  54 2.64  63 2.83  35 2.83
                             1 2.87  13 2.87  37 2.87   7 2.89
  43  0.417  0.581  0.300-  15 2.60  55 2.60   3 2.62  39 2.64  51 2.65  47 2.66  56 2.81   6 2.87
                            48 2.88  62 2.88  34 2.89  52 3.26
  44  0.251  0.750  0.419-  48 2.64  20 2.64  36 2.64  56 2.65  40 2.65  16 2.65  39 2.87  47 2.87
                            35 2.88
  45  0.250  0.500  0.056-  41 2.64  53 2.64   5 2.64   9 2.64  49 2.64  33 2.64   6 2.87  10 2.87
                            34 2.87
  46  0.083  0.667  0.178-  34 2.64  50 2.64  10 2.64  42 2.64  22 2.64  38 2.64  59 2.83  35 2.83
                            39 2.85  37 2.87  33 2.87  41 2.87
  47  0.417  0.833  0.297-  39 2.64  51 2.64  23 2.64  35 2.64  11 2.66  43 2.66  58 2.83  34 2.83
                            38 2.84  56 2.85  44 2.87  20 2.88
  48  0.250  0.500  0.422-  65 2.18  36 2.64  44 2.64   8 2.64  56 2.64  52 2.70  12 2.71   3 2.87
                            43 2.88  39 2.91
  49  0.500  0.500  0.056-  61 2.64  53 2.64  57 2.64  21 2.64   9 2.64  45 2.64  26 2.87   6 2.87
                            62 2.87
  50  0.833  0.667  0.178-  22 2.64  46 2.64  26 2.64  42 2.64  54 2.64  62 2.64  59 2.83  63 2.83
                            57 2.87  61 2.87  37 2.87  55 2.89
  51  0.667  0.833  0.297-  63 2.63  55 2.64  47 2.64  43 2.65  27 2.65  23 2.65  62 2.83  54 2.83
                            58 2.84  56 2.84  32 2.86  60 2.87
  52  0.503  0.503  0.444-  65 1.84  66 1.93  60 2.64  56 2.67  64 2.67  12 2.70  48 2.70  24 2.70
                            55 3.24  43 3.26  15 3.26
  53  0.500  0.750  0.056-  49 2.64  57 2.64  45 2.64  41 2.64  29 2.64  17 2.64  62 2.87  34 2.87
                            58 2.87
  54  0.833  0.917  0.178-  18 2.64  14 2.64  50 2.64  58 2.64  42 2.64  62 2.64  63 2.82  51 2.83
                            27 2.84  29 2.87   1 2.87  57 2.87
  55  0.664  0.582  0.300-  43 2.60  15 2.61  19 2.63  51 2.64  59 2.66  63 2.67  64 2.82  60 2.83
                            26 2.87  62 2.87  50 2.89  52 3.24
  56  0.501  0.750  0.417-  60 2.62  48 2.64  32 2.64  44 2.65  20 2.65  52 2.67  43 2.81  51 2.84
                            47 2.85
  57  0.750  0.750  0.056-  61 2.64  49 2.64  53 2.64  37 2.64   1 2.64  29 2.64  50 2.87  62 2.87
                            54 2.87
[...]
   -.424E+01 -.631E+01 0.763E+03   0.438E+01 0.642E+01 -.762E+03   -.128E+00 -.890E-01 -.488E+00   -.219E-01 -.193E-01 0.391E-01
   0.152E+02 -.690E+01 -.855E+03   -.154E+02 0.704E+01 0.855E+03   0.277E+00 -.153E+00 0.262E+00   -.281E-01 0.162E-01 -.502E-02
   -.884E+01 0.175E+02 -.226E+04   0.860E+01 -.175E+02 0.226E+04   0.244E+00 -.329E-01 -.793E-02   -.318E-02 0.120E-01 0.820E-02
   -.665E+00 0.428E+00 0.231E+04   0.655E+00 -.412E+00 -.231E+04   0.125E-02 -.270E-01 -.165E+00   0.144E-01 -.522E-02 0.768E-03
   -.380E+01 -.780E+00 0.784E+03   0.384E+01 0.848E+00 -.784E+03   -.563E-01 -.469E-01 -.383E+00   0.107E-01 -.256E-01 0.437E-01
   0.293E+01 -.205E+01 -.747E+03   -.319E+01 0.208E+01 0.747E+03   0.250E+00 -.307E-01 0.322E+00   0.496E-02 -.131E-01 0.363E-01
   -.380E+01 0.242E+01 -.229E+04   0.375E+01 -.244E+01 0.229E+04   0.879E-02 0.339E-01 0.129E+00   0.463E-01 -.996E-02 0.202E-01
   0.702E+01 -.394E+01 0.230E+04   -.713E+01 0.400E+01 -.230E+04   0.141E-01 -.804E-02 0.409E-02   0.871E-02 -.655E-02 -.432E-02
   0.469E+00 0.173E+01 0.790E+03   -.510E+00 -.170E+01 -.789E+03   0.412E-01 -.180E-01 -.426E+00   0.775E-02 -.680E-02 0.274E-01
   0.151E+00 -.303E+00 -.758E+03   -.255E+00 0.351E+00 0.758E+03   0.648E-01 -.247E-01 0.466E+00   0.422E-01 -.240E-01 0.489E-01
   -.191E+02 0.106E+02 -.221E+04   0.199E+02 -.110E+02 0.221E+04   -.877E+00 0.449E+00 0.358E+00   -.277E-02 0.236E-02 -.125E-02
   -.707E+00 0.435E+00 0.231E+04   0.690E+00 -.436E+00 -.231E+04   0.258E-01 0.111E-01 -.170E+00   0.114E-01 -.115E-01 -.620E-05
   0.105E+02 -.516E+00 0.769E+03   -.106E+02 0.556E+00 -.769E+03   0.673E-01 -.602E-01 -.288E+00   -.681E-03 0.150E-01 0.245E-01
   -.372E+01 -.173E+01 -.753E+03   0.383E+01 0.176E+01 0.753E+03   -.992E-01 -.278E-01 0.381E+00   -.103E-01 -.731E-02 0.398E-01
   -.478E+01 0.141E+01 -.229E+04   0.473E+01 -.136E+01 0.229E+04   0.153E-01 -.135E-01 0.128E+00   0.348E-01 -.343E-01 0.176E-01
   -.528E+00 0.338E+00 0.231E+04   0.539E+00 -.346E+00 -.231E+04   -.224E-01 0.158E-01 -.132E+00   0.410E-02 -.282E-02 0.119E-01
   0.253E+01 -.140E+01 0.792E+03   -.264E+01 0.146E+01 -.792E+03   0.938E-01 -.516E-01 -.326E+00   0.238E-01 -.161E-01 0.376E-01
   -.145E+01 -.129E+01 -.751E+03   0.157E+01 0.132E+01 0.750E+03   -.134E+00 -.877E-02 0.331E+00   0.313E-01 -.375E-01 0.438E-01
   0.297E+01 -.206E+01 -.228E+04   -.284E+01 0.201E+01 0.228E+04   -.132E+00 0.541E-01 0.937E-01   0.905E-02 -.335E-02 -.104E-01
   -.337E+01 0.312E+01 0.231E+04   0.334E+01 -.309E+01 -.231E+04   0.670E-02 -.211E-01 -.213E+00   -.529E-02 -.231E-02 -.414E-02
   -.813E+01 0.630E+01 0.784E+03   0.816E+01 -.638E+01 -.784E+03   -.410E-01 0.721E-01 -.230E+00   0.140E-01 0.137E-01 0.404E-01
   -.333E+00 -.789E+00 -.743E+03   0.325E+00 0.890E+00 0.743E+03   0.154E-01 -.108E+00 0.375E+00   -.508E-03 0.769E-02 0.278E-01
   0.104E+02 -.540E+01 -.228E+04   -.104E+02 0.535E+01 0.228E+04   -.504E-01 0.735E-01 0.138E+00   0.355E-01 -.290E-01 0.469E-01
   0.208E+01 -.115E+01 0.231E+04   -.199E+01 0.110E+01 -.231E+04   -.641E-01 0.354E-01 -.198E+00   -.861E-02 0.622E-02 0.278E-02
   -.119E+01 -.137E+01 0.789E+03   0.115E+01 0.139E+01 -.789E+03   0.411E-01 -.197E-01 -.424E+00   0.926E-02 -.164E-02 0.284E-01
   -.159E+01 0.102E+01 -.747E+03   0.184E+01 -.115E+01 0.747E+03   -.255E+00 0.141E+00 0.434E+00   0.368E-01 -.217E-01 0.603E-01
   -.313E+01 0.244E+01 -.226E+04   0.304E+01 -.238E+01 0.226E+04   0.101E+00 -.644E-01 0.841E-01   -.161E-01 0.105E-01 0.478E-01
   -.434E+01 0.126E+01 0.231E+04   0.430E+01 -.126E+01 -.231E+04   0.205E-01 0.623E-02 -.215E+00   -.680E-04 0.722E-02 -.305E-02
   0.109E+01 -.773E+01 0.786E+03   -.110E+01 0.780E+01 -.786E+03   0.329E-01 -.632E-01 -.219E+00   -.260E-01 0.588E-03 0.298E-01
   -.110E+02 0.116E+02 -.821E+03   0.113E+02 -.120E+02 0.821E+03   -.296E+00 0.394E+00 0.114E+00   0.351E-02 0.882E-02 0.210E-01
   0.101E+02 -.541E+01 -.228E+04   -.100E+02 0.543E+01 0.228E+04   -.755E-01 -.813E-02 0.136E+00   0.401E-01 -.179E-01 0.438E-01
   -.982E+01 0.574E+01 0.230E+04   0.990E+01 -.579E+01 -.230E+04   0.833E-02 -.597E-02 -.478E-01   -.349E-02 0.268E-02 -.753E-04
   -.241E+01 0.132E+01 0.793E+03   0.244E+01 -.134E+01 -.793E+03   -.252E-01 0.130E-01 -.335E+00   -.751E-02 0.626E-02 0.289E-01
   0.890E+00 0.181E+01 -.751E+03   -.852E+00 -.192E+01 0.751E+03   -.632E-01 0.117E+00 0.339E+00   0.459E-01 -.523E-02 0.409E-01
   0.222E+02 -.114E+02 -.224E+04   -.233E+02 0.120E+02 0.224E+04   0.111E+01 -.637E+00 0.324E+00   0.132E-01 -.762E-02 -.413E-01
   0.656E+01 0.312E+01 0.229E+04   -.660E+01 -.319E+01 -.229E+04   -.221E-01 0.211E-01 0.429E-01   0.279E-02 0.142E-01 0.416E-02
   0.726E+01 0.279E+01 0.786E+03   -.733E+01 -.282E+01 -.786E+03   0.757E-01 0.759E-02 -.233E+00   -.120E-01 0.255E-01 0.286E-01
   -.691E+00 0.365E+01 -.754E+03   0.716E+00 -.375E+01 0.753E+03   -.243E-01 0.918E-01 0.392E+00   0.226E-02 0.155E-01 0.411E-01
   -.349E+02 -.473E+02 -.238E+04   0.354E+02 0.483E+02 0.238E+04   -.396E+00 -.106E+01 -.745E-01   -.345E-01 0.171E-01 -.346E-01
   -.357E+01 0.583E+01 0.230E+04   0.356E+01 -.593E+01 -.230E+04   0.269E-01 0.300E-01 -.916E-02   0.959E-02 0.180E-01 0.599E-02
   0.855E+00 -.518E+00 0.795E+03   -.806E+00 0.487E+00 -.795E+03   -.415E-01 0.247E-01 -.339E+00   -.107E-01 0.759E-02 0.532E-01
   0.118E+02 0.693E+01 -.807E+03   -.122E+02 -.735E+01 0.807E+03   0.434E+00 0.378E+00 0.144E+00   -.390E-01 0.311E-01 0.136E-01
   0.642E+01 -.196E+02 -.225E+04   -.632E+01 0.195E+02 0.225E+04   -.109E+00 0.112E+00 -.317E-01   0.182E-01 0.342E-02 -.458E-01
   0.582E+01 0.373E+01 0.230E+04   -.585E+01 -.377E+01 -.230E+04   0.109E-02 -.354E-03 -.115E+00   -.875E-03 0.173E-01 0.100E-01
   -.127E+01 0.359E+01 0.784E+03   0.123E+01 -.366E+01 -.784E+03   0.163E-01 0.721E-01 -.382E+00   0.251E-01 0.424E-02 0.424E-01
   0.595E+00 0.808E+00 -.742E+03   -.675E+00 -.843E+00 0.742E+03   0.861E-01 0.310E-01 0.384E+00   -.408E-02 -.143E-02 0.287E-01
   -.142E+02 -.206E+02 -.226E+04   0.139E+02 0.200E+02 0.226E+04   0.320E+00 0.587E+00 -.447E-01   -.424E-01 0.356E-01 -.224E-02
   0.660E+01 0.191E+01 0.231E+04   -.661E+01 -.186E+01 -.231E+04   -.201E-01 -.401E-01 -.125E+00   0.601E-02 0.885E-02 -.482E-03
   0.309E+01 0.656E+01 0.763E+03   -.310E+01 -.674E+01 -.762E+03   0.812E-02 0.160E+00 -.496E+00   0.335E-02 0.291E-01 0.378E-01
   0.501E+00 -.526E+00 -.737E+03   -.530E+00 0.537E+00 0.736E+03   0.699E-01 -.365E-01 0.320E+00   -.500E-01 0.303E-01 0.335E-01
   -.207E+02 -.893E+00 -.226E+04   0.205E+02 0.107E+01 0.226E+04   0.201E+00 -.171E+00 -.348E-03   -.145E-01 -.188E-02 0.130E-02
   0.158E+02 -.977E+01 -.286E+03   -.169E+02 0.104E+02 0.287E+03   0.742E+00 -.388E+00 -.147E+01   -.140E-02 -.815E-05 -.304E-02
   -.192E+02 0.735E+01 -.286E+03   0.205E+02 -.774E+01 0.287E+03   -.995E+00 0.124E+00 -.150E+01   -.231E-02 0.458E-03 -.142E-02
   0.689E+00 0.603E+00 0.399E+01   0.334E-12 -.444E-13 -.210E-11   -.663E+00 -.614E+00 -.507E+01   -.146E-01 0.165E-01 0.110E+01

 POSITION                                       TOTAL-FORCE (eV/Angst)
     10.55998      0.00001      1.11585         0.012323      0.034125     -0.001068
      2.63569      1.53085      3.57190        -0.000403      0.002484      0.010416
      0.02228      3.04554      6.03696         0.023311      0.002500      0.071457
      0.01256      0.01945      8.37113         0.014013      0.023348     -0.002440
      9.23998      2.28632      1.11585         0.067650      0.012912      0.095858
      1.32426      3.80786      3.64407         0.006359     -0.004200      0.055811
      1.32830      0.78954      6.00990         0.002762      0.011245     -0.005754
     -1.31062      2.28399      8.35739         0.015172      0.003850      0.017383
      1.31998      2.28632      1.11585        -0.000866      0.070647      0.064803
     -1.31183      3.80818      3.54718         0.002684      0.002250      0.013757
      3.95401      0.76928      5.93232        -0.005591      0.014077      0.013740
      1.31591      2.26305      8.94482         0.005349     -0.020365      0.378746
      2.63998      0.00001      1.11585        -0.028153      0.010977     -0.037624
      0.00866      1.53038      3.58776         0.003260      0.001733      0.010499
      2.62574      3.05881      6.05560        -0.003555      0.002210      0.049927
      2.63567      0.00209      8.37099        -0.011132      0.004178     -0.014190
      5.27998      0.00001      1.11585         0.002598     -0.014561     -0.027380
      7.92195      1.52452      3.55140         0.003446     -0.001122     -0.002744
      5.27179      3.05183      5.93094        -0.010720     -0.002469      0.010772
      5.28081      0.00169      8.37697        -0.001508      0.005189     -0.030251
      3.95998      2.28632      1.11585        -0.091874      0.050420      0.043862
      6.59776      3.81221      3.53762         0.002240      0.001185     -0.008269
      6.59620      0.76561      5.94398         0.003600     -0.000156     -0.021291
      3.96015      2.29119      8.34717        -0.011659      0.011191      0.057636
      6.59998      2.28632      1.11585         0.017249     -0.000447     -0.030316
      3.95221      3.81089      3.57067        -0.004261     -0.000739      0.011845
      9.24854      0.76216      5.94225         0.016028      0.005837      0.003162
      6.60094      2.29065      8.37363        -0.003753      0.004036     -0.034572
      7.91998      0.00001      1.11585        -0.002834      0.002342     -0.004060
      5.27665      1.52589      3.53458        -0.000987      0.000248      0.001776
      7.92639      3.04849      5.93578         0.007682     -0.010664     -0.005794
      7.92622      0.00163      8.35790         0.008898     -0.001556     -0.029547
      7.91998      4.57263      1.11585        -0.027256      0.008300     -0.093878
      0.00591      6.09073      3.54625         0.000897     -0.005076      0.012197
     -2.63684      7.62718      5.92266         0.007533     -0.004901     -0.028560
     -2.63584      4.57369      8.36106         0.006654     -0.005554     -0.038328
      6.59998      6.85894      1.11585         0.014151     -0.012414     -0.078787
     -1.32293      8.38412      3.53845         0.000947     -0.000566     -0.006047
     -1.30496      5.32832      5.93002         0.019788     -0.008265      0.020727
     -3.96088      6.86438      8.30040        -0.000645      0.004228     -0.036538
     -1.32002      6.85894      1.11585        -0.020986      0.017776     -0.094059
     -3.96095      8.38944      3.53584         0.000285     -0.000566     -0.014969
      1.33414      5.31892      6.03234         0.006458     -0.015692      0.063736
     -1.31563      6.86145      8.36661         0.004188     -0.002407     -0.042542
     -0.00002      4.57263      1.11585         0.092818     -0.060004      0.071026
     -2.63995      6.09672      3.52515         0.003753     -0.003322     -0.013233
      0.00473      7.61830      5.93632         0.013601     -0.001297     -0.006033
     -0.00356      4.57871      8.43090         0.001185      0.002851      0.142444
      2.63998      4.57263      1.11585        -0.060455     -0.036561      0.066361
      5.27389      6.09390      3.53710         0.000506      0.001620     -0.016113
      2.64614      7.61722      5.94319         0.004790     -0.011340      0.004805
      2.65788      4.60397      8.90562         0.017082      0.019010      0.362052
      1.31998      6.85894      1.11585         0.022946     -0.064147      0.096001
      3.95909      8.38352      3.53308         0.002838     -0.002683      0.001950
      3.94038      5.31689      6.01249        -0.008096     -0.005007     -0.001827
      1.32995      6.85943      8.35559         0.008445     -0.010190      0.016801
      3.95998      6.85894      1.11585        -0.026125     -0.027877      0.001168
      1.32042      8.38106      3.55181         0.002765     -0.002870     -0.003485
      6.59804      5.33214      5.92142         0.005411     -0.002512     -0.029544
      3.95526      6.84825      8.37833        -0.010985     -0.018924     -0.000307
      5.27998      4.57263      1.11585        -0.021481      0.021180     -0.038028
      2.63900      6.08606      3.58815        -0.000087     -0.003683      0.010103
      5.27691      7.62379      5.91193        -0.002600      0.001142      0.002271
      5.27896      4.58156      8.36827        -0.009337      0.011316     -0.016720
      1.37840      3.81861      9.94589        -0.364729      0.264943     -0.504021
      2.53613      3.01957      9.97084         0.278411     -0.267207     -0.464771
    total drift:                                0.010645      0.005406      0.017481

  FREE ENERGIE OF THE ION-ELECTRON SYSTEM (eV)
  free  energy   TOTEN  =      -412.11494855 eV

  energy  without entropy=     -412.06274056  energy(sigma->0) =     -412.09754589

 d Force = 0.6228800E-02[ 0.601E-02, 0.645E-02]  d Energy = 0.5543825E-02 0.685E-03
 d Force = 0.8250308E+01[ 0.835E+01, 0.815E+01]  d Ewald  = 0.8250298E+01 0.102E-04

 NEB: the previous image is higher in energy: F
 NEB: the next image is higher in energy    : T
 NEB: only next energy greater

 NEB: Tangent
      0.00000      0.00000      0.00000
     -0.00033     -0.00104     -0.00480
     -0.01870     -0.00258     -0.03429
     -0.01441     -0.02439     -0.00031
      0.00000      0.00000      0.00000
     -0.00021      0.00048     -0.03485
     -0.00484     -0.00516      0.01154
     -0.01353     -0.00262      0.00905
      0.00000      0.00000      0.00000
     -0.00145     -0.00236     -0.01130
      0.00435     -0.00799     -0.01269
     -0.00012      0.01546     -0.36610
      0.00000      0.00000      0.00000
     -0.00177     -0.00173     -0.00175
      0.00017     -0.00175     -0.02706
      0.01033     -0.00806      0.01847
      0.00000      0.00000      0.00000
     -0.00056     -0.00060      0.00305
      0.00910      0.00019     -0.01029
      0.00286     -0.00500      0.01268
      0.00000      0.00000      0.00000
      0.00092     -0.00303      0.00130
     -0.00073      0.00022      0.00772
      0.01334     -0.01251     -0.04476
      0.00000      0.00000      0.00000
      0.00057      0.00086     -0.00336
     -0.01193     -0.00218      0.00357
      0.00453     -0.00517      0.01897
      0.00000      0.00000      0.00000
      0.00096     -0.00018     -0.00767
     -0.00539      0.00469      0.00055
     -0.00759     -0.00048      0.02969
      0.00000      0.00000      0.00000
      0.00167      0.00290     -0.00961
     -0.00660      0.00128     -0.00094
     -0.00520      0.00127      0.00133
      0.00000      0.00000      0.00000
      0.00359      0.00080      0.00006
     -0.01670      0.00779     -0.03084
      0.00142     -0.00548      0.00971
      0.00000      0.00000      0.00000
     -0.00025      0.00308      0.00857
     -0.00766      0.01714     -0.02995
     -0.00628     -0.00247      0.00203
      0.00000      0.00000      0.00000
     -0.00193      0.00100     -0.00753
     -0.00842      0.00052      0.00088
     -0.00342     -0.00246     -0.08920
      0.00000      0.00000      0.00000
     -0.00280     -0.00098      0.00930
     -0.00506      0.00907      0.00352
     -0.01478     -0.02536     -0.33726
      0.00000      0.00000      0.00000
     -0.00292      0.00168     -0.00550
      0.00295      0.00580      0.01163
     -0.00732      0.00648      0.00988
      0.00000      0.00000      0.00000
      0.00076      0.00087      0.00305
     -0.00630      0.00268      0.00114
      0.00869      0.01656     -0.00241
      0.00000      0.00000      0.00000
      0.00084      0.00257     -0.00140
     -0.00222      0.00113     -0.01233
      0.00944     -0.01023      0.02436
      0.34720     -0.20912      0.47925
     -0.27306      0.23924      0.44964

 NEB: forces: par spring, perp REAL, dneb     0.010118    0.132989    0.000000
 NEB: distance to prev, next image, angle between     0.746117    0.744093  127.298541
 NEB: projections on to tangent (spring, REAL)    -0.010118   -1.066479

 stress matrix after NEB project (eV)
     76.91606      0.23466     -0.02134
      0.23466     77.48703     -0.00783
     -0.02134     -0.00783     -3.60223
  FORCES: max atom, RMS     0.048274    0.016417
  FORCE total and by dimension    0.133373    0.048212
  Stress total and by dimension  109.240131   77.487027
 Quasi-Newton relaxation of ions (Broydens 2nd method)
  g(Force)  = 0.153E-02   g(Stress)= 0.000E+00

 retain information from N=  5 steps
 eigenvalues of (default step * inverse Hessian matrix)
  average eigenvalue of G=   2.8839
 eigenvalue spectrum of G is  5.7209  5.7209  1.3363  1.1043  0.5373

 reached required accuracy - stopping structural energy minimisation