 vasp.5.4.4.18Apr17-6-g9f103f2a35 (build Nov 30 2020 22:55:02) complex

 executed on             LinuxIFC date 2023.07.29  12:10:42

 INCAR:
 POTCAR:    PAW_PBE Pt 04Feb2005
 POTCAR:    PAW_PBE H 15Jun2001
 POTCAR:    PAW_PBE Pt 04Feb2005
   VRHFIN =Pt: s1d9

   TITEL  = PAW_PBE Pt 04Feb2005
   POMASS =  195.080; ZVAL   =   10.000    mass and valenz
   ENMAX  =  230.283; ENMIN  =  172.712 eV

 POTCAR:    PAW_PBE H 15Jun2001
   VRHFIN =H: ultrasoft test

   TITEL  = PAW_PBE H 15Jun2001
   POMASS =    1.000; ZVAL   =    1.000    mass and valenz
   ENMAX  =  250.000; ENMIN  =  200.000 eV

 Optimization of the real space projectors (new method)

 maximal supplied QI-value         = 14.36
 optimisation between [QCUT,QGAM] = [ 11.92, 23.98] = [ 39.79,161.09] Ry
 Optimized for a Real-space Cutoff    1.49 Angstroem

   l    n(q)    QCUT    max X(q) W(low)/X(q) W(high)/X(q)  e(spline)
   2     10    11.920    66.195    0.79E-04    0.18E-03    0.24E-06
   2     10    11.920    64.643    0.81E-04    0.19E-03    0.24E-06
   0     11    11.920    95.520    0.28E-04    0.54E-04    0.18E-06
   0     11    11.920    63.403    0.27E-04    0.52E-04    0.17E-06
   1     10    11.920    19.961    0.18E-04    0.11E-03    0.23E-06
   1     10    11.920    13.289    0.25E-04    0.87E-04    0.19E-06
 Optimization of the real space projectors (new method)

 maximal supplied QI-value         = 34.20
 optimisation between [QCUT,QGAM] = [ 11.97, 23.94] = [ 40.13,160.53] Ry
 Optimized for a Real-space Cutoff    1.18 Angstroem

   l    n(q)    QCUT    max X(q) W(low)/X(q) W(high)/X(q)  e(spline)
   0      8    11.971    19.460    0.15E-03    0.31E-03    0.25E-06
   0      8    11.971    12.209    0.13E-03    0.29E-03    0.25E-06
   1      8    11.971     4.655    0.22E-03    0.24E-03    0.21E-06
  PAW_PBE Pt 04Feb2005                  :
  PAW_PBE H 15Jun2001                   :

 POSCAR: Pt111\(1\1\1)\(2)
  positions in direct lattice
  velocities in cartesian coordinates
 exchange correlation table for  LEXCH =        8
   RHO(1)=    0.500       N(1)  =     2000
   RHO(2)=  100.500       N(2)  =     4000

 ion  position               nearest neighbor table
   1  1.000  0.000  0.056-   5 2.64   9 2.64  13 2.64  29 2.64  57 2.64  37 2.64  42 2.87  14 2.87
                            54 2.87
   2  0.333  0.167  0.178-  30 2.64  26 2.64  38 2.64  42 2.64  14 2.64   6 2.64  11 2.83   7 2.86
                            15 2.87   9 2.87  21 2.87  13 2.87
   3  0.168  0.334  0.299-  15 2.62  43 2.62   7 2.63  39 2.63  27 2.65  31 2.65   8 2.81   6 2.86
                            10 2.86  14 2.87  48 2.97  12 2.97
   4  1.000  0.000  0.419-  12 2.62  60 2.64  40 2.64  32 2.64  16 2.64   8 2.64   7 2.86  63 2.87
                            27 2.88
   5  1.000  0.250  0.056-   1 2.64  45 2.64  33 2.64   9 2.64  29 2.64  25 2.64  14 2.87  10 2.87
                            18 2.87
   6  0.333  0.417  0.178-  26 2.64  62 2.64  10 2.64  34 2.64  14 2.64   2 2.64   3 2.86  15 2.86
                            43 2.86  45 2.87  49 2.87   9 2.87
   7  0.167  0.085  0.299-  15 2.63   3 2.63  27 2.64  11 2.64  63 2.65  35 2.65   2 2.86  14 2.86
                            16 2.86   4 2.86  42 2.87  12 2.95
   8  0.999  0.250  0.416-  28 2.63  32 2.63  36 2.64   4 2.64  48 2.66  12 2.66   3 2.81  31 2.82
                            27 2.83
   9  0.250  0.250  0.056-  21 2.64  13 2.64   1 2.64  49 2.64  45 2.64   5 2.64   2 2.87  14 2.87
                             6 2.87
  10  0.083  0.417  0.178-  34 2.64   6 2.64  46 2.64  14 2.64  18 2.64  22 2.64  31 2.83  39 2.86
                             3 2.86  33 2.87  45 2.87   5 2.87
  11  0.417  0.083  0.297-  47 2.63  35 2.64   7 2.64  23 2.64  19 2.65  15 2.65  24 2.83  38 2.83
                             2 2.83  30 2.83  16 2.88  20 2.91
  12  0.249  0.247  0.426-  16 2.62   4 2.62  24 2.66   8 2.66  52 2.69  48 2.69   7 2.95   3 2.97
                            15 2.97
  13  0.250  0.000  0.056-  21 2.64   9 2.64  17 2.64   1 2.64  37 2.64  41 2.64  38 2.87   2 2.87
                            42 2.87
  14  0.083  0.167  0.178-  42 2.64  54 2.64   6 2.64   2 2.64  10 2.64  18 2.64  27 2.83   7 2.86
                             3 2.87   5 2.87   1 2.87   9 2.87
  15  0.416  0.334  0.299-   3 2.62  43 2.62   7 2.63  55 2.63  11 2.65  19 2.65  24 2.81   6 2.86
                            26 2.86   2 2.87  52 2.97  12 2.97
  16  0.250  0.000  0.419-  12 2.62  44 2.64  40 2.64  20 2.64   4 2.64  24 2.64   7 2.86  35 2.87
                            11 2.88
  17  0.500  0.000  0.056-  29 2.64  25 2.64  13 2.64  21 2.64  41 2.64  53 2.64  58 2.87  30 2.87
                            38 2.87
  18  0.833  0.167  0.178-  54 2.64  58 2.64  22 2.64  10 2.64  30 2.64  14 2.64  27 2.83  31 2.83
                            23 2.86  25 2.87  29 2.87   5 2.87
  19  0.667  0.334  0.297-  31 2.63  59 2.64  55 2.64  23 2.64  11 2.65  15 2.65  24 2.82  22 2.83
                            26 2.83  30 2.83  64 2.88  28 2.91
  20  0.500  0.000  0.421-  56 2.63  24 2.63  16 2.64  44 2.64  32 2.64  28 2.64  23 2.88  11 2.91
                            47 2.91
  21  0.500  0.250  0.056-  25 2.64  61 2.64   9 2.64  13 2.64  49 2.64  17 2.64  30 2.87   2 2.87
                            26 2.87
  22  0.833  0.417  0.178-  50 2.64  26 2.64  30 2.64  18 2.64  46 2.64  10 2.64  19 2.83  31 2.83
                            59 2.84  61 2.87  25 2.87  33 2.87
  23  0.667  0.083  0.299-  31 2.64  19 2.64  51 2.64  47 2.64  27 2.64  11 2.64  18 2.86  30 2.86
                            58 2.86  32 2.88  20 2.88  28 2.88
  24  0.501  0.250  0.416-  65 1.95  28 2.63  20 2.63  64 2.64  16 2.64  52 2.66  12 2.66  15 2.81
                            19 2.82  11 2.83
  25  0.750  0.250  0.056-  17 2.64  21 2.64  29 2.64  61 2.64  33 2.64   5 2.64  18 2.87  22 2.87
                            30 2.87
  26  0.583  0.417  0.178-   6 2.64   2 2.64  22 2.64  30 2.64  62 2.64  50 2.64  19 2.83  55 2.86
                            15 2.86  49 2.87  61 2.87  21 2.87
  27  0.917  0.083  0.297-  51 2.63  63 2.64   7 2.64  23 2.64  31 2.65   3 2.65   8 2.83  54 2.83
                            14 2.83  18 2.83   4 2.88  32 2.91
  28  0.750  0.251  0.421-  24 2.63   8 2.63  64 2.64  36 2.64  20 2.64  32 2.64  23 2.88  19 2.91
                            31 2.91
  29  0.750  0.000  0.056-  17 2.64  25 2.64   5 2.64  53 2.64   1 2.64  57 2.64  54 2.87  18 2.87
                            58 2.87
  30  0.583  0.167  0.178-   2 2.64  38 2.64  58 2.64  26 2.64  22 2.64  18 2.64  11 2.83  19 2.83
                            23 2.86  21 2.87  17 2.87  25 2.87
  31  0.917  0.334  0.297-  19 2.63  59 2.64  39 2.64  23 2.64  27 2.65   3 2.65   8 2.82  22 2.83
                            10 2.83  18 2.83  36 2.88  28 2.91
  32  0.750  0.000  0.421-  56 2.63   8 2.63   4 2.64  60 2.64  20 2.64  28 2.64  23 2.88  27 2.91
                            51 2.91
  33  1.000  0.500  0.056-  37 2.64  41 2.64   5 2.64  45 2.64  25 2.64  61 2.64  10 2.87  46 2.87
                            22 2.87
  34  0.333  0.667  0.178-  62 2.64  10 2.64  58 2.64  46 2.64   6 2.64  38 2.64  47 2.83  39 2.86
                            43 2.86  41 2.87  45 2.87  53 2.87
  35  0.167  0.833  0.297-  59 2.64  63 2.64  47 2.64  11 2.64   7 2.65  39 2.65  42 2.84  38 2.84
                            46 2.84  40 2.86  44 2.87  16 2.87
  36  0.000  0.500  0.419-  48 2.62  64 2.64  40 2.64  44 2.64  28 2.64   8 2.64  39 2.86  59 2.87
                            31 2.88
  37  1.000  0.750  0.056-  33 2.64  41 2.64  61 2.64  57 2.64  13 2.64   1 2.64  46 2.87  50 2.87
                            42 2.87
  38  0.333  0.917  0.178-  58 2.64  30 2.64   2 2.64  42 2.64  34 2.64  46 2.64  47 2.83  11 2.83
                            35 2.84  13 2.87  17 2.87  41 2.87
  39  0.167  0.583  0.299-  43 2.63   3 2.63  31 2.64  47 2.64  59 2.65  35 2.65  34 2.86  10 2.86
                            36 2.86  44 2.86  46 2.87  48 2.95
  40  0.000  0.750  0.418-  36 2.64  64 2.64  16 2.64   4 2.64  44 2.64  60 2.64  63 2.86  35 2.86
                            59 2.86
  41  0.250  0.750  0.056-  45 2.64  33 2.64  37 2.64  53 2.64  17 2.64  13 2.64  34 2.87  46 2.87
                            38 2.87
  42  0.083  0.917  0.178-  14 2.64   2 2.64  38 2.64  46 2.64  50 2.64  54 2.64  63 2.84  35 2.84
                             7 2.87   1 2.87  13 2.87  37 2.87
  43  0.416  0.582  0.299-  15 2.62   3 2.62  39 2.63  55 2.63  51 2.65  47 2.65  56 2.81   6 2.86
                            62 2.86  34 2.86  52 2.97  48 2.97
  44  0.250  0.750  0.419-  48 2.62  16 2.64  40 2.64  36 2.64  20 2.64  56 2.64  39 2.86  35 2.87
                            47 2.88
  45  0.250  0.500  0.056-  41 2.64  53 2.64   5 2.64   9 2.64  49 2.64  33 2.64   6 2.87  10 2.87
                            34 2.87
  46  0.083  0.667  0.178-  34 2.64  50 2.64  10 2.64  42 2.64  22 2.64  38 2.64  59 2.84  35 2.84
                            39 2.87  37 2.87  33 2.87  41 2.87
  47  0.417  0.834  0.297-  11 2.63  35 2.64  23 2.64  39 2.64  51 2.65  43 2.65  56 2.83  38 2.83
                            58 2.83  34 2.83  44 2.88  20 2.91
  48  0.249  0.502  0.426-  44 2.62  36 2.62   8 2.66  56 2.66  52 2.68  12 2.69  39 2.95  43 2.97
                             3 2.97
  49  0.500  0.500  0.056-  61 2.64  53 2.64  57 2.64  21 2.64   9 2.64  45 2.64  26 2.87   6 2.87
                            62 2.87
  50  0.833  0.667  0.178-  22 2.64  46 2.64  26 2.64  42 2.64  54 2.64  62 2.64  59 2.84  63 2.84
                            55 2.87  57 2.87  61 2.87  37 2.87
  51  0.667  0.834  0.297-  27 2.63  63 2.64  23 2.64  55 2.64  47 2.65  43 2.65  56 2.83  54 2.83
                            58 2.83  62 2.83  60 2.88  32 2.91
  52  0.503  0.502  0.426-  65 1.83  60 2.62  64 2.62  24 2.66  56 2.66  48 2.68  12 2.69  55 2.95
                            43 2.97  15 2.97
  53  0.500  0.750  0.056-  49 2.64  57 2.64  45 2.64  41 2.64  29 2.64  17 2.64  62 2.87  34 2.87
                            58 2.87
  54  0.833  0.917  0.178-  18 2.64  14 2.64  50 2.64  58 2.64  42 2.64  62 2.64  51 2.83  27 2.83
                            63 2.84  29 2.87   1 2.87  57 2.87
  55  0.665  0.583  0.299-  43 2.63  15 2.63  19 2.64  51 2.64  59 2.65  63 2.65  62 2.86  26 2.86
                            64 2.86  60 2.86  50 2.87  52 2.95
  56  0.501  0.751  0.416-  32 2.63  20 2.63  60 2.64  44 2.64  52 2.66  48 2.66  43 2.81  47 2.83
                            51 2.83
  57  0.750  0.750  0.056-  61 2.64  49 2.64  53 2.64  37 2.64   1 2.64  29 2.64  50 2.87  62 2.87
                            54 2.87
  58  0.583  0.917  0.178-  38 2.64  30 2.64  18 2.64  34 2.64  62 2.64  54 2.64  47 2.83  51 2.83
                            23 2.86  17 2.87  29 2.87  53 2.87
  59  0.917  0.584  0.297-  35 2.64  63 2.64  31 2.64  19 2.64  55 2.65  39 2.65  46 2.84  50 2.84
                            22 2.84  40 2.86  36 2.87  64 2.87
  60  0.750  0.750  0.419-  52 2.62   4 2.64  40 2.64  64 2.64  32 2.64  56 2.64  55 2.86  63 2.87
                            51 2.88
  61  0.750  0.500  0.056-  49 2.64  57 2.64  21 2.64  25 2.64  37 2.64  33 2.64  22 2.87  26 2.87
[...]

  FORCE on cell =-STRESS in cart. coord.  units (eV):
  Direction    XX          YY          ZZ          XY          YZ          ZX
  Alpha Z  2019.82281  2019.82281  2019.82281
  Ewald  162636.08029162627.56876************    -1.57408    -1.36499     0.43185
  Hartree173531.24031173527.97033************    -0.72058    -0.20298     0.10287
  E(xc)   -2859.09024 -2859.11154 -2884.75197    -0.00162    -0.00617     0.00293
  Local  ************************358287.72082     2.20108     1.12998    -0.42904
  n-local   576.10212   575.65908   315.46150    -0.06051    -0.12165     0.04305
  augment  3253.05794  3253.42459  3533.59144     0.02987     0.16569    -0.05215
  Kinetic  9157.60743  9158.57595  9752.40198     0.05915     0.44647    -0.11566
  Fock        0.00000     0.00000     0.00000     0.00000     0.00000     0.00000
  vdW       -53.61460   -53.59821   -28.86118     0.00666    -0.00139     0.00069
  Total      82.05855    81.85035    -0.08763    -0.06003     0.04497    -0.01546
  in kB      68.06846    67.89575    -0.07269    -0.04979     0.03730    -0.01282

 VOLUME and BASIS-vectors are now :
  energy-cutoff  :      550.00
  volume of cell :     1931.47
      direct lattice vectors                 reciprocal lattice vectors
    10.560000420  0.000000000  0.000000000     0.094696966  0.054673319  0.000000000
    -5.280000210  9.145228627  0.000000000     0.000000000  0.109346638  0.000000000
     0.000000000  0.000000000 20.000000000     0.000000000  0.000000000  0.050000000

  length of vectors
    10.560000420 10.560000420 20.000000000     0.109346638  0.109346638  0.050000000

 FORCES acting on ions
    electron-ion (+dipol)            ewald-force                    non-local-force                 convergence-correction
   -.946E-01 0.427E-01 0.231E+04   0.731E-01 -.871E-02 -.231E+04   0.208E-02 -.254E-02 -.108E+00   0.739E-02 -.234E-01 -.645E-01
   -.190E+01 -.330E+01 0.780E+03   0.190E+01 0.329E+01 -.780E+03   -.600E-02 0.368E-01 -.309E+00   0.495E-01 -.299E-02 -.703E-01
   -.128E+01 -.183E+01 -.762E+03   0.129E+01 0.186E+01 0.762E+03   -.228E-01 -.382E-01 0.423E+00   0.218E-01 0.154E-01 0.580E-01
   -.393E+00 0.787E+00 -.232E+04   0.321E+00 -.729E+00 0.232E+04   0.517E-01 -.404E-01 0.129E+00   0.132E-01 -.222E-02 0.771E-01
   -.646E-01 -.211E+00 0.231E+04   0.830E-01 0.189E+00 -.231E+04   -.132E-03 -.352E-03 -.105E+00   -.198E-01 0.574E-02 -.718E-01
   -.373E+01 -.214E+01 0.779E+03   0.372E+01 0.218E+01 -.778E+03   0.238E-01 -.532E-02 -.302E+00   0.415E-01 0.158E-01 -.730E-01
   -.680E+00 0.160E+00 -.765E+03   0.687E+00 -.125E+00 0.765E+03   -.493E-01 -.266E-01 0.395E+00   0.344E-01 -.102E-01 0.394E-01
   0.373E+00 0.269E+00 -.231E+04   -.363E+00 -.336E+00 0.231E+04   -.133E-01 0.529E-01 0.101E+00   0.137E-04 0.142E-01 0.844E-01
   -.475E+00 -.445E+00 0.231E+04   0.471E+00 0.450E+00 -.231E+04   -.135E-02 0.189E-03 -.283E-01   0.283E-01 0.122E-02 -.678E-01
   -.360E+00 -.167E+01 0.784E+03   0.393E+00 0.165E+01 -.784E+03   -.183E-02 0.175E-01 -.487E+00   -.313E-01 0.199E-01 -.773E-01
   0.231E+00 -.180E+01 -.778E+03   -.264E+00 0.207E+01 0.778E+03   0.122E-01 -.281E+00 0.361E+00   0.254E-01 0.855E-02 0.152E-01
   0.401E+01 0.424E+01 -.227E+04   -.414E+01 -.429E+01 0.227E+04   0.135E+00 0.335E-01 0.447E-02   0.109E-01 0.382E-02 0.958E-01
   -.254E+00 -.272E+00 0.231E+04   0.218E+00 0.247E+00 -.231E+04   0.597E-02 0.512E-02 -.116E+00   0.252E-01 -.987E-02 -.550E-01
   0.244E+00 0.192E-02 0.783E+03   -.247E+00 0.131E-01 -.782E+03   -.224E-01 -.111E-01 -.364E+00   0.880E-02 -.172E-01 -.725E-01
   -.437E+01 -.535E+01 -.791E+03   0.445E+01 0.547E+01 0.791E+03   -.143E+00 -.137E+00 0.342E+00   0.439E-01 0.158E-01 0.730E-01
   0.370E+01 0.605E+01 -.230E+04   -.368E+01 -.599E+01 0.230E+04   -.428E-01 -.635E-01 0.937E-01   0.172E-01 0.875E-02 0.740E-01
   0.220E+00 -.150E+00 0.231E+04   -.208E+00 0.117E+00 -.231E+04   -.615E-02 0.204E-02 -.114E+00   -.720E-02 0.262E-02 -.481E-01
   -.758E+00 0.610E-01 0.783E+03   0.806E+00 -.546E-01 -.783E+03   0.260E-01 -.957E-02 -.359E+00   -.504E-01 -.443E-02 -.654E-01
   0.519E+01 -.429E+01 -.787E+03   -.532E+01 0.439E+01 0.786E+03   0.161E+00 -.112E+00 0.352E+00   -.321E-02 0.501E-02 0.385E-01
   -.307E+01 0.580E+01 -.230E+04   0.304E+01 -.574E+01 0.230E+04   0.359E-01 -.794E-01 0.970E-01   -.174E-01 0.149E-02 0.547E-01
   0.872E-01 -.442E+00 0.231E+04   -.109E+00 0.466E+00 -.231E+04   0.147E-02 -.108E-01 -.683E-01   0.199E-01 0.113E-02 -.426E-01
   0.314E+01 -.104E+01 0.780E+03   -.312E+01 0.109E+01 -.780E+03   -.166E-01 -.208E-01 -.328E+00   -.426E-01 0.381E-02 -.635E-01
   0.771E+00 0.402E+00 -.762E+03   -.774E+00 -.407E+00 0.762E+03   0.379E-01 -.834E-02 0.406E+00   -.324E-01 0.172E-01 0.499E-02
   -.495E+00 0.185E+02 -.231E+04   0.480E+00 -.194E+02 0.231E+04   0.104E-01 0.916E+00 -.217E+00   -.579E-02 0.160E-01 -.849E-02
   0.451E+00 -.308E+00 0.231E+04   -.444E+00 0.318E+00 -.231E+04   0.139E-02 -.203E-02 -.337E-01   -.283E-01 0.432E-02 -.478E-01
   0.923E+00 -.683E+00 0.778E+03   -.964E+00 0.692E+00 -.777E+03   -.232E-02 -.812E-05 -.417E+00   0.324E-01 0.208E-02 -.665E-01
   -.184E+00 0.217E+00 -.786E+03   0.216E+00 -.199E+00 0.786E+03   -.172E-01 -.375E-02 0.421E+00   -.252E-01 -.212E-01 0.319E-01
   -.389E+01 0.234E+01 -.227E+04   0.403E+01 -.243E+01 0.227E+04   -.136E+00 0.885E-01 0.262E-01   -.849E-02 0.221E-01 0.589E-01
   0.128E+00 0.146E+00 0.231E+04   -.831E-01 -.132E+00 -.231E+04   -.213E-02 0.301E-02 -.109E+00   -.254E-01 -.110E-01 -.575E-01
   0.238E+01 -.266E+01 0.781E+03   -.242E+01 0.265E+01 -.781E+03   0.585E-02 0.289E-01 -.329E+00   -.790E-02 0.110E-01 -.623E-01
   0.463E+00 -.126E+01 -.764E+03   -.416E+00 0.129E+01 0.764E+03   0.565E-02 -.373E-01 0.381E+00   -.624E-01 0.418E-02 0.365E-01
   -.321E+00 0.269E+00 -.231E+04   0.378E+00 -.220E+00 0.231E+04   -.296E-01 -.406E-01 0.115E+00   -.455E-02 -.162E-01 0.677E-01
   0.257E+00 -.123E+00 0.231E+04   -.211E+00 0.111E+00 -.231E+04   -.266E-02 0.904E-02 -.115E+00   -.223E-01 0.149E-01 -.584E-01
   -.254E+01 0.157E+01 0.779E+03   0.254E+01 -.160E+01 -.779E+03   0.183E-01 -.839E-02 -.332E+00   0.126E-02 0.304E-01 -.783E-01
   0.262E+00 -.296E+00 -.769E+03   -.256E+00 0.300E+00 0.768E+03   -.134E-01 -.261E-02 0.377E+00   0.394E-02 -.392E-02 0.227E-01
   -.699E+01 0.459E-01 -.230E+04   0.689E+01 -.399E-01 0.230E+04   0.115E+00 -.391E-02 0.912E-01   -.694E-02 -.673E-02 0.714E-01
   0.991E-01 0.401E+00 0.231E+04   -.771E-01 -.367E+00 -.231E+04   -.297E-02 -.438E-02 -.104E+00   0.493E-02 -.144E-01 -.520E-01
   -.312E+00 -.104E+01 0.781E+03   0.298E+00 0.101E+01 -.781E+03   0.777E-02 0.740E-02 -.383E+00   0.959E-02 0.156E-01 -.715E-01
   -.735E+00 0.558E+00 -.770E+03   0.768E+00 -.591E+00 0.769E+03   -.131E-01 0.111E-01 0.380E+00   -.150E-01 0.253E-01 0.393E-01
   -.319E+01 -.691E+01 -.229E+04   0.315E+01 0.683E+01 0.229E+04   0.380E-01 0.977E-01 0.825E-01   0.833E-02 -.121E-01 0.429E-01
   -.128E+00 0.118E+00 0.231E+04   0.123E+00 -.118E+00 -.231E+04   0.222E-02 -.653E-02 -.148E+00   -.216E-02 0.128E-01 -.595E-01
   -.128E+01 0.387E+00 0.785E+03   0.127E+01 -.359E+00 -.784E+03   0.239E-01 -.642E-02 -.494E+00   0.156E-01 -.270E-01 -.696E-01
   -.318E+01 0.244E+01 -.789E+03   0.343E+01 -.260E+01 0.789E+03   -.275E+00 0.140E+00 0.318E+00   0.228E-01 0.272E-02 0.536E-01
   0.786E+00 -.765E+00 -.230E+04   -.778E+00 0.753E+00 0.230E+04   -.130E-02 0.112E-01 0.800E-01   0.818E-02 -.178E-02 0.975E-01
   -.465E+00 -.167E+00 0.231E+04   0.448E+00 0.149E+00 -.231E+04   -.227E-02 0.535E-02 -.111E+00   -.453E-03 0.252E-01 -.714E-01
   0.108E+01 0.107E+01 0.781E+03   -.105E+01 -.107E+01 -.780E+03   -.753E-02 -.206E-02 -.360E+00   -.234E-01 0.671E-02 -.722E-01
   -.402E+00 0.308E+00 -.770E+03   0.431E+00 -.353E+00 0.770E+03   -.323E-01 0.290E-01 0.372E+00   -.740E-02 0.196E-01 0.272E-01
   0.916E+01 0.546E+00 -.230E+04   -.900E+01 -.537E+00 0.230E+04   -.170E+00 -.144E-01 0.690E-01   -.334E-02 0.116E-01 0.103E+00
   -.172E+00 0.899E-01 0.231E+04   0.168E+00 -.107E+00 -.231E+04   -.522E-02 0.366E-02 -.814E-01   0.241E-01 0.567E-02 -.512E-01
   0.156E+01 0.396E+01 0.780E+03   -.152E+01 -.398E+01 -.780E+03   -.324E-01 -.171E-01 -.306E+00   -.307E-02 -.267E-01 -.625E-01
   0.819E+00 0.146E+01 -.763E+03   -.845E+00 -.150E+01 0.762E+03   0.289E-01 0.585E-01 0.389E+00   0.773E-02 -.895E-02 0.274E-01
   0.165E+02 -.954E+01 -.233E+04   -.172E+02 0.990E+01 0.233E+04   0.627E+00 -.344E+00 -.413E+00   0.106E-01 -.108E-01 0.418E-01
   -.104E+00 0.519E+00 0.231E+04   0.855E-01 -.513E+00 -.231E+04   0.490E-04 -.174E-02 -.115E+00   -.470E-02 0.912E-02 -.563E-01
   0.416E+00 -.468E+00 0.783E+03   -.402E+00 0.497E+00 -.783E+03   -.829E-02 0.305E-01 -.382E+00   -.996E-02 -.339E-01 -.657E-01
   0.126E+01 0.715E+01 -.792E+03   -.131E+01 -.731E+01 0.792E+03   0.332E-01 0.201E+00 0.359E+00   0.232E-01 -.183E-01 0.390E-01
   0.345E+01 -.844E+01 -.230E+04   -.340E+01 0.831E+01 0.230E+04   -.422E-01 0.151E+00 0.662E-01   -.600E-02 -.833E-02 0.726E-01
   0.133E+00 0.662E+00 0.231E+04   -.132E+00 -.670E+00 -.231E+04   0.547E-03 0.150E-02 -.223E-01   0.193E-02 -.191E-01 -.490E-01
   0.115E+01 0.143E+01 0.784E+03   -.113E+01 -.145E+01 -.784E+03   -.195E-01 -.699E-02 -.495E+00   -.153E-01 0.952E-02 -.713E-01
   0.259E+01 0.168E+01 -.780E+03   -.283E+01 -.183E+01 0.780E+03   0.255E+00 0.155E+00 0.331E+00   -.284E-01 -.674E-02 0.142E-01
   -.101E+01 -.602E+01 -.226E+04   0.991E+00 0.614E+01 0.226E+04   0.217E-01 -.126E+00 0.168E-01   -.147E-01 -.533E-02 0.391E-01
   0.379E+00 0.130E+00 0.231E+04   -.404E+00 -.131E+00 -.231E+04   0.105E-01 0.196E-02 -.706E-01   -.134E-02 -.489E-02 -.386E-01
   -.108E+00 0.441E+01 0.779E+03   0.447E-01 -.446E+01 -.778E+03   0.230E-01 -.175E-01 -.288E+00   0.252E-01 -.263E-02 -.712E-01
   -.539E+00 0.682E+00 -.760E+03   0.534E+00 -.671E+00 0.760E+03   0.239E-02 0.363E-01 0.401E+00   -.141E-02 -.430E-01 0.157E-01
   -.178E+02 -.945E+01 -.232E+04   0.185E+02 0.983E+01 0.232E+04   -.639E+00 -.378E+00 -.401E+00   -.743E-02 -.184E-01 0.134E-02
   -.836E+00 0.183E+01 -.293E+03   0.868E+00 -.197E+01 0.295E+03   -.378E-01 0.137E+00 -.170E+01   -.889E-03 -.868E-03 -.582E-03
   0.957E-01 -.397E+00 0.367E+01   0.234E-12 -.632E-12 0.108E-11   -.958E-01 0.403E+00 -.313E+01   0.500E-03 -.326E-02 -.495E+00

 POSITION                                       TOTAL-FORCE (eV/Angst)
     10.55998      0.00001      1.11585        -0.012032      0.008073     -0.012932
      2.63997      1.52422      3.55048         0.041573      0.024771     -0.013062
     -0.00104      3.05195      5.93422         0.019354      0.005924      0.027232
     -0.00037      0.00001      8.40548        -0.006677      0.015886     -0.003799
      9.23998      2.28632      1.11585        -0.001574     -0.016488     -0.008869
      1.31997      3.81053      3.55048         0.055179      0.049978      0.042217
      1.32216      0.76148      5.93796        -0.003905      0.003048      0.009390
     -1.32078      2.28855      8.39912        -0.003502     -0.000884     -0.006920
      1.31998      2.28632      1.11585         0.022262      0.006254      0.011298
     -1.32003      3.81053      3.55048         0.000910      0.019706     -0.030381
      3.95994      0.77657      5.95785         0.003845     -0.005717      0.026062
      1.30878      2.28465      8.32492         0.017676     -0.009783     -0.005985
      2.63998      0.00001      1.11585        -0.004922     -0.030047     -0.011788
     -0.00003      1.52422      3.55048        -0.012823     -0.010611     -0.012064
      2.64871      3.05715      5.97243        -0.015151      0.003623     -0.000367
      2.63821      0.00067      8.38216        -0.004397      0.009802     -0.009867
      5.27998      0.00001      1.11585        -0.000976     -0.028558     -0.004686
      7.91997      1.52422      3.55048         0.019827     -0.005793     -0.005227
      5.27167      3.05545      5.96596         0.010719      0.001031      0.009663
      5.27916      0.00160      8.37505        -0.007047     -0.019935      0.009441
      3.95998      2.28632      1.11585        -0.000731      0.014117     -0.043181
      6.59997      3.81053      3.55048        -0.041582      0.032485      0.011953
      6.59989      0.76054      5.93396        -0.000688      0.007026      0.013246
      3.95865      2.26539      8.47677        -0.009605     -0.003321      0.048091
      6.59998      2.28632      1.11585        -0.020712      0.012770      0.014427
      3.95997      3.81053      3.55048        -0.011436      0.012071      0.245979
      9.24150      0.76275      5.96864        -0.009435     -0.006014     -0.009767
      6.60833      2.28189      8.32153        -0.007229      0.025326     -0.000902
      7.91998      0.00001      1.11585         0.017602      0.005607     -0.009114
      5.27997      1.52422      3.55048        -0.044716      0.021361     -0.027563
      7.92359      3.05156      5.93821        -0.015135     -0.003816     -0.000111
      7.91628      0.00089      8.39982         0.023457     -0.007839      0.002404
      7.91998      4.57263      1.11585         0.020613      0.011413     -0.002126
     -0.00003      6.09683      3.55048         0.011398     -0.005956     -0.016175
     -2.63713      7.62188      5.94647        -0.005703     -0.001467     -0.008587
     -2.64073      4.57387      8.38113         0.008438     -0.005124     -0.001094
      6.59998      6.85894      1.11585         0.023931      0.014800     -0.005417
     -1.32003      8.38314      3.55048         0.003448     -0.004596     -0.041371
     -1.31850      5.33584      5.94809         0.006272      0.001997     -0.006995
     -3.96146      6.86096      8.36313         0.004337      0.004968      0.017417
     -1.32002      6.85894      1.11585        -0.004999      0.005860     -0.043315
     -3.96003      8.38314      3.55048         0.022276     -0.005414     -0.038901
      1.33457      5.32808      5.97715        -0.002042     -0.018027      0.007441
     -1.32186      6.86016      8.35989         0.014114     -0.001690     -0.006544
     -0.00002      4.57263      1.11585        -0.020185      0.012083     -0.002871
     -2.64003      6.09683      3.55048         0.004632      0.000283     -0.047705
      0.00166      7.61947      5.94891        -0.010325      0.003911     -0.010862
     -0.00121      4.57357      8.38681        -0.008626      0.005700     -0.007952
      2.63998      4.57263      1.11585         0.014475     -0.007337     -0.062427
      5.27997      6.09683      3.55048         0.002981     -0.061152     -0.015463
      2.63665      7.62127      5.93515         0.012307      0.002238      0.006384
      2.61656      4.58640      8.54823        -0.008856      0.010365      0.020570
      1.31998      6.85894      1.11585        -0.022929      0.013378     -0.003486
      3.95997      8.38314      3.55048        -0.003467      0.021619     -0.025450
      3.95881      5.32283      5.97314         0.002563      0.006558      0.001023
      1.31768      6.86009      8.38605         0.004016      0.006134     -0.012294
      3.95998      6.85894      1.11585         0.003693     -0.025034      0.012401
      1.31997      8.38314      3.55048        -0.015926     -0.017150     -0.032934
      6.58808      5.32727      5.96211        -0.009205      0.001114      0.020951
      3.95738      6.86951      8.31467        -0.006392     -0.011927      0.019275
      5.27998      4.57263      1.11585        -0.015477     -0.003069     -0.056011
      2.63997      6.09683      3.55048        -0.017271     -0.069338      0.036553
      5.28215      7.62262      5.93054        -0.004920     -0.002401      0.014158
      5.30014      4.58695      8.51141         0.005487     -0.009121      0.039510
      3.96796      3.82963      9.54163        -0.006789     -0.003673     -0.002521
    total drift:                                0.000393      0.001870      0.041870

  FREE ENERGIE OF THE ION-ELECTRON SYSTEM (eV)
  free  energy   TOTEN  =      -408.86804218 eV

  energy  without entropy=     -408.83286827  energy(sigma->0) =     -408.85631755

 d Force = 0.1226371E-02[ 0.525E-03, 0.193E-02]  d Energy = 0.1267955E-02-0.416E-04
 d Force = 0.4112924E+01[ 0.412E+01, 0.411E+01]  d Ewald  = 0.4112922E+01 0.176E-05

 Conjugate gradient step on ions:
 trial-energy change:   -0.001268  1 .order   -0.001226   -0.001928   -0.000525
  (g-gl).g = 0.144E-02      g.g   = 0.141E-02  gl.gl    = 0.481E-02
 g(Force)  = 0.141E-02   g(Stress)= 0.000E+00 ortho     =-0.433E-04
 gamma     =   0.29889
 trial     =   1.38186
 opt step  =   1.80109  (harmonic =   1.89821) maximal distance =0.00951400
 next E    =  -408.868123   (d E  =  -0.00135)

 reached required accuracy - stopping structural energy minimisation