 vasp.5.4.4.18Apr17-6-g9f103f2a35 (build Nov 30 2020 22:55:02) complex

 executed on             LinuxIFC date 2023.09.08  21:33:23

 INCAR:
 POTCAR:    PAW_PBE Pt 04Feb2005
 POTCAR:    PAW_PBE H 15Jun2001
 POTCAR:    PAW_PBE Pt 04Feb2005
   VRHFIN =Pt: s1d9

   TITEL  = PAW_PBE Pt 04Feb2005
   POMASS =  195.080; ZVAL   =   10.000    mass and valenz
   ENMAX  =  230.283; ENMIN  =  172.712 eV

 POTCAR:    PAW_PBE H 15Jun2001
   VRHFIN =H: ultrasoft test

   TITEL  = PAW_PBE H 15Jun2001
   POMASS =    1.000; ZVAL   =    1.000    mass and valenz
   ENMAX  =  250.000; ENMIN  =  200.000 eV

 Optimization of the real space projectors (new method)

 maximal supplied QI-value         = 14.36
 optimisation between [QCUT,QGAM] = [ 11.92, 23.98] = [ 39.79,161.09] Ry
 Optimized for a Real-space Cutoff    1.49 Angstroem

   l    n(q)    QCUT    max X(q) W(low)/X(q) W(high)/X(q)  e(spline)
   2     10    11.920    66.195    0.79E-04    0.18E-03    0.24E-06
   2     10    11.920    64.643    0.81E-04    0.19E-03    0.24E-06
   0     11    11.920    95.520    0.28E-04    0.54E-04    0.18E-06
   0     11    11.920    63.403    0.27E-04    0.52E-04    0.17E-06
   1     10    11.920    19.961    0.18E-04    0.11E-03    0.23E-06
   1     10    11.920    13.289    0.25E-04    0.87E-04    0.19E-06
 Optimization of the real space projectors (new method)

 maximal supplied QI-value         = 34.20
 optimisation between [QCUT,QGAM] = [ 11.97, 23.94] = [ 40.13,160.53] Ry
 Optimized for a Real-space Cutoff    1.18 Angstroem

   l    n(q)    QCUT    max X(q) W(low)/X(q) W(high)/X(q)  e(spline)
   0      8    11.971    19.460    0.15E-03    0.31E-03    0.25E-06
   0      8    11.971    12.209    0.13E-03    0.29E-03    0.25E-06
   1      8    11.971     4.655    0.22E-03    0.24E-03    0.21E-06
  PAW_PBE Pt 04Feb2005                  :
  PAW_PBE H 15Jun2001                   :

 POSCAR: Pt111
  positions in direct lattice
  velocities in cartesian coordinates
 exchange correlation table for  LEXCH =        8
   RHO(1)=    0.500       N(1)  =     2000
   RHO(2)=  100.500       N(2)  =     4000

 ion  position               nearest neighbor table
   1  0.785  0.869  0.328-  71 2.74  20 2.75  55 2.75  73 2.79  56 2.79   3 2.79   2 2.79  43 2.79
                            35 2.79  72 2.79  27 2.79  34 2.80
   2  0.035  0.870  0.327-  65 2.74  55 2.74  68 2.74  39 2.78  72 2.79   1 2.79  47 2.79   3 2.79
                            23 2.79  29 2.79  57 2.79  27 2.80
   3  0.035  0.619  0.328-  55 2.74  12 2.74  76 2.75  39 2.78  15 2.79   9 2.79   1 2.79  28 2.79
                             2 2.79  56 2.79  57 2.79  35 2.80
   4  0.787  0.867  0.022-   6 2.79  21 2.79   5 2.79  58 2.79  75 2.79  78 2.79  74 2.79  44 2.79
                            19 2.80
   5  0.037  0.868  0.022-  74 2.78   4 2.79  48 2.79  49 2.79  70 2.79  24 2.79  59 2.79   6 2.79
                            78 2.80
   6  0.037  0.618  0.022-  46 2.79  18 2.79   4 2.79  70 2.79  59 2.79  10 2.79  58 2.79   5 2.79
                            21 2.80
   7  0.619  0.202  0.126-  71 2.74  79 2.75  80 2.75  42 2.78  78 2.79  53 2.79  44 2.79  22 2.79
                            11 2.79  61 2.79  19 2.79  74 2.80
   8  0.369  0.952  0.126-  69 2.74  66 2.75  26 2.75  16 2.79  25 2.79  19 2.79  54 2.79  24 2.79
                            49 2.79  60 2.79  53 2.79  75 2.80
   9  0.035  0.370  0.328-  12 2.74  77 2.74  62 2.75  33 2.78  56 2.79   3 2.79  47 2.79  13 2.79
                            28 2.79  30 2.79  63 2.80  15 2.80
  10  0.037  0.368  0.022-  54 2.78  48 2.79  64 2.79  46 2.79  18 2.79   6 2.79  58 2.79  16 2.79
                            45 2.80
  11  0.869  0.202  0.125-  65 2.74  77 2.74  79 2.76  64 2.79  45 2.79  49 2.79  74 2.79   7 2.79
                            22 2.79  54 2.79  78 2.79  48 2.80
  12  0.952  0.536  0.227-   9 2.74  45 2.74  21 2.74   3 2.74  56 2.75  46 2.75  77 2.79  62 2.79
                            20 2.79  55 2.79  67 2.80  76 2.80
  13  0.285  0.120  0.328-  62 2.74  26 2.75  69 2.75  31 2.78   9 2.79  43 2.79  36 2.79  33 2.79
                            73 2.79  47 2.79  15 2.80  23 2.80
  14  0.534  0.619  0.329-  51 2.75  66 2.76  67 2.77  57 2.78  63 2.78  41 2.78  23 2.78  52 2.79
                            56 2.79  73 2.79  38 2.82  37 2.83
  15  0.285  0.370  0.328-  76 2.74  80 2.75  62 2.76  41 2.78  57 2.78  36 2.79   3 2.79  43 2.79
                            28 2.79  50 2.80  13 2.80   9 2.80
  16  0.288  0.118  0.022-   8 2.79  44 2.79  75 2.79  53 2.79  18 2.79  48 2.79  24 2.79  10 2.79
                            54 2.80
  17  0.537  0.618  0.022-  22 2.79  59 2.79  24 2.79  25 2.79  42 2.79  64 2.79  58 2.79  75 2.79
                            60 2.80
  18  0.287  0.368  0.022-  53 2.79   6 2.79  59 2.79  61 2.79  16 2.79  10 2.79  44 2.79  42 2.79
                            46 2.80
  19  0.619  0.952  0.125-  20 2.74  71 2.75  69 2.75  44 2.79   8 2.79  75 2.79  21 2.79  53 2.79
                            25 2.79  78 2.79   7 2.79   4 2.80
  20  0.702  0.785  0.226-  56 2.74  19 2.74  25 2.74  73 2.75   1 2.75  21 2.75  67 2.79  12 2.79
                            66 2.79  69 2.79  71 2.79  55 2.79
  21  0.869  0.702  0.126-  12 2.74  55 2.74  20 2.75   4 2.79  45 2.79  19 2.79  58 2.79  46 2.79
                            70 2.79  78 2.79  25 2.79   6 2.80
  22  0.619  0.452  0.126-  79 2.74  67 2.74  51 2.76  17 2.79  25 2.79  61 2.79  42 2.79  45 2.79
                             7 2.79  11 2.79  60 2.79  64 2.80
  23  0.285  0.869  0.328-  68 2.74  66 2.75  26 2.75  57 2.78  14 2.78  37 2.79   2 2.79  73 2.79
                            31 2.79  13 2.80  47 2.80  29 2.80
  24  0.287  0.868  0.022-  60 2.79  17 2.79  48 2.79   8 2.79   5 2.79  59 2.79  16 2.79  75 2.79
                            49 2.80
  25  0.619  0.702  0.125-  20 2.74  67 2.75  66 2.75   8 2.79  75 2.79  22 2.79  17 2.79  60 2.79
                            19 2.79  45 2.79  21 2.79  58 2.80
  26  0.202  0.036  0.227-  54 2.74  49 2.74  13 2.75  47 2.75   8 2.75  23 2.75  69 2.79  77 2.79
                            62 2.79  65 2.79  66 2.79  68 2.79
  27  0.868  0.953  0.431-  39 2.76  40 2.77  29 2.78  32 2.79  72 2.79  34 2.79   1 2.79  35 2.80
                             2 2.80
  28  0.117  0.453  0.431-  50 2.76  30 2.78  35 2.78  33 2.79   3 2.79   9 2.79  39 2.79  15 2.79
                            36 2.80
  29  0.116  0.955  0.431-  37 2.75  32 2.77  27 2.78  47 2.78  33 2.78   2 2.79  39 2.79  23 2.80
                            31 2.81
  30  0.868  0.453  0.431-  38 2.76  28 2.78  35 2.78  33 2.79  56 2.79  63 2.79   9 2.79  52 2.80
                            32 2.80
  31  0.368  0.955  0.431-  37 2.75  36 2.77  34 2.78  13 2.78  33 2.79  23 2.79  52 2.79  73 2.80
                            29 2.81
  32  0.868  0.203  0.431-  38 2.76  29 2.77  27 2.79  63 2.79  40 2.79  33 2.79  72 2.79  47 2.79
                            30 2.80
  33  0.117  0.203  0.431-  29 2.78   9 2.78  31 2.79  30 2.79  28 2.79  47 2.79  36 2.79  13 2.79
                            32 2.79
  34  0.617  0.954  0.431-  52 2.76  40 2.77  31 2.78  36 2.79  43 2.79  27 2.79  73 2.79  35 2.80
                             1 2.80
  35  0.868  0.703  0.431-  52 2.76  39 2.77  30 2.78  28 2.78   1 2.79  56 2.79  27 2.80  34 2.80
                             3 2.80
  36  0.368  0.203  0.431-  50 2.76  31 2.77  34 2.79  15 2.79  40 2.79  13 2.79  33 2.79  43 2.80
                            28 2.80
  37  0.364  0.710  0.434-  81 1.85  29 2.75  31 2.75  23 2.79  39 2.81  52 2.82  57 2.83  14 2.83
                            50 2.88  38 2.88
  38  0.622  0.451  0.434-  81 1.86  30 2.76  32 2.76  63 2.80  52 2.81  40 2.82  14 2.82  41 2.83
                            50 2.87  37 2.88
  39  0.115  0.705  0.431-  27 2.76  35 2.77   2 2.78   3 2.78  57 2.79  28 2.79  29 2.79  50 2.81
                            37 2.81
  40  0.619  0.201  0.431-  34 2.77  27 2.77  41 2.79  43 2.79  36 2.79  32 2.79  72 2.79  38 2.82
                            50 2.82
  41  0.535  0.370  0.329-  51 2.75  80 2.76  79 2.77  63 2.78  15 2.78  14 2.78  57 2.78  40 2.79
                            72 2.79  43 2.79  38 2.83  50 2.83
  42  0.538  0.367  0.022-   7 2.78  74 2.79  44 2.79  64 2.79  22 2.79  17 2.79  18 2.79  59 2.79
                            61 2.80
  43  0.535  0.119  0.328-  80 2.74  69 2.75  71 2.75  40 2.79  72 2.79  34 2.79  73 2.79  13 2.79
                            15 2.79   1 2.79  41 2.79  36 2.80
  44  0.537  0.118  0.022-  19 2.79  42 2.79  16 2.79  75 2.79   7 2.79  74 2.79   4 2.79  18 2.79
                            53 2.80
  45  0.869  0.452  0.126-  77 2.74  12 2.74  67 2.75  21 2.79  58 2.79  11 2.79  22 2.79  46 2.79
                            25 2.79  64 2.79  54 2.79  10 2.80
  46  0.119  0.452  0.126-  62 2.74  12 2.75  76 2.75   6 2.79  54 2.79  10 2.79  21 2.79  53 2.79
                            45 2.79  70 2.79  61 2.79  18 2.80
  47  0.035  0.120  0.328-  77 2.74  65 2.75  26 2.75  29 2.78  33 2.79   9 2.79  72 2.79   2 2.79
                            13 2.79  32 2.79  63 2.80  23 2.80
  48  0.037  0.118  0.022-  49 2.79  10 2.79   5 2.79  24 2.79  54 2.79  74 2.79  64 2.79  16 2.79
                            11 2.80
  49  0.119  0.952  0.126-  26 2.74  65 2.75  68 2.75  48 2.79  60 2.79   5 2.79  11 2.79  54 2.79
                             8 2.79  70 2.79  78 2.79  24 2.80
  50  0.365  0.452  0.434-  81 1.88  28 2.76  36 2.76  15 2.80  39 2.81  40 2.82  57 2.82  41 2.83
                            38 2.87  37 2.88
  51  0.452  0.536  0.227-  41 2.75  14 2.75  60 2.75  61 2.75  57 2.76  22 2.76  67 2.78  76 2.78
                            66 2.78  80 2.79  68 2.79  79 2.79
  52  0.619  0.705  0.431-  34 2.76  35 2.76  73 2.78  14 2.79  56 2.79  31 2.79  30 2.80  38 2.81
                            37 2.82
  53  0.369  0.202  0.126-  69 2.74  80 2.75  62 2.75  18 2.79  61 2.79  16 2.79  54 2.79   7 2.79
                            19 2.79  46 2.79   8 2.79  44 2.80
  54  0.120  0.202  0.126-  26 2.74  62 2.74  77 2.75  10 2.78  46 2.79  53 2.79   8 2.79  49 2.79
                            48 2.79  11 2.79  45 2.79  16 2.80
  55  0.952  0.786  0.227-   3 2.74   2 2.74  78 2.74  21 2.74  70 2.75   1 2.75  12 2.79  76 2.79
                            68 2.79  71 2.79  65 2.79  20 2.79
  56  0.785  0.619  0.328-  67 2.74  20 2.74  12 2.75  52 2.79  63 2.79   9 2.79   1 2.79  73 2.79
                            30 2.79  35 2.79   3 2.79  14 2.79
  57  0.285  0.619  0.329-  51 2.76  68 2.76  76 2.76  14 2.78  15 2.78  41 2.78  23 2.78  39 2.79
                             3 2.79   2 2.79  50 2.82  37 2.83
  58  0.787  0.618  0.022-  75 2.79  64 2.79  45 2.79   4 2.79  21 2.79  10 2.79   6 2.79  17 2.79
                            25 2.80
  59  0.287  0.618  0.022-  61 2.79  17 2.79  18 2.79   6 2.79  60 2.79  24 2.79   5 2.79  42 2.79
                            70 2.80
  60  0.369  0.702  0.126-  66 2.75  68 2.75  51 2.75  24 2.79  49 2.79  70 2.79  59 2.79  61 2.79
                            25 2.79   8 2.79  22 2.79  17 2.80
[...]

 FORCES acting on ions
    electron-ion (+dipol)            ewald-force                    non-local-force                 convergence-correction
   -.690E-01 0.135E+00 -.132E+04   0.615E-01 -.121E+00 0.132E+04   0.667E-03 0.472E-02 0.690E+00   0.443E-02 -.164E-01 0.121E+00
   -.601E-01 0.117E+01 -.131E+04   0.107E+00 -.119E+01 0.131E+04   -.320E-01 0.175E-01 0.696E+00   -.215E-01 -.935E-02 0.142E+00
   -.949E+00 -.687E+00 -.131E+04   0.101E+01 0.666E+00 0.131E+04   -.410E-01 0.300E-01 0.694E+00   -.876E-02 0.112E-01 0.144E+00
   0.576E-01 -.465E+00 0.261E+04   -.392E-01 0.421E+00 -.261E+04   -.348E-01 0.565E-01 -.141E+01   0.727E-02 -.558E-02 0.103E+00
   -.743E+00 0.156E+01 0.261E+04   0.759E+00 -.151E+01 -.261E+04   0.172E-01 -.543E-01 -.131E+01   -.133E-01 -.493E-02 0.995E-01
   -.159E+00 0.285E+00 0.261E+04   0.199E+00 -.316E+00 -.261E+04   -.204E-01 0.125E-01 -.131E+01   -.392E-02 0.614E-02 0.103E+00
   -.459E-01 -.108E+01 0.133E+04   0.534E-01 0.109E+01 -.133E+04   -.343E-02 0.293E-01 -.719E+00   -.243E-02 -.201E-01 0.436E+00
   0.223E+00 0.553E+00 0.133E+04   -.224E+00 -.535E+00 -.133E+04   -.129E-01 -.300E-01 -.692E+00   0.857E-02 0.736E-02 0.452E+00
   -.913E-01 0.144E+01 -.132E+04   0.712E-01 -.144E+01 0.132E+04   0.120E-01 -.187E-01 0.688E+00   0.117E-01 0.292E-02 0.153E+00
   -.858E+00 -.281E+00 0.261E+04   0.831E+00 0.238E+00 -.261E+04   0.202E-01 0.461E-01 -.124E+01   0.408E-02 0.125E-01 0.947E-01
   0.618E+00 -.373E+00 0.133E+04   -.580E+00 0.373E+00 -.133E+04   -.327E-01 0.194E-01 -.682E+00   0.215E-02 -.169E-01 0.444E+00
   -.242E+00 0.209E+00 0.448E+01   0.222E+00 -.197E+00 -.482E+01   0.666E-02 -.556E-02 -.634E-01   0.162E-01 0.270E-02 0.394E+00
   0.106E+01 -.722E+00 -.132E+04   -.107E+01 0.722E+00 0.132E+04   -.784E-02 0.392E-02 0.703E+00   0.469E-03 0.577E-02 0.166E+00
   0.223E+01 0.113E+01 -.134E+04   -.233E+01 -.119E+01 0.133E+04   0.898E-01 0.414E-01 0.613E+00   0.221E-01 0.198E-01 0.152E+00
   0.117E+00 0.336E+00 -.132E+04   0.943E-01 -.216E+00 0.132E+04   -.196E+00 -.120E+00 0.493E+00   -.229E-01 -.377E-02 0.142E+00
   0.930E+00 -.771E+00 0.261E+04   -.879E+00 0.730E+00 -.261E+04   -.524E-01 0.305E-01 -.124E+01   0.384E-02 0.466E-02 0.909E-01
   0.153E+00 0.329E-01 0.261E+04   -.168E+00 -.444E-01 -.261E+04   0.252E-01 0.225E-01 -.132E+01   0.262E-02 -.947E-03 0.876E-01
   -.161E+00 0.164E+00 0.261E+04   0.165E+00 -.156E+00 -.261E+04   -.627E-02 -.195E-01 -.129E+01   -.359E-02 0.807E-02 0.941E-01
   0.203E+00 -.404E+00 0.133E+04   -.241E+00 0.416E+00 -.133E+04   0.244E-01 0.172E-02 -.722E+00   0.124E-01 -.699E-02 0.451E+00
   0.593E+00 -.763E-02 0.672E+01   -.630E+00 -.162E-02 -.715E+01   0.168E-01 0.157E-01 0.359E-01   0.177E-01 0.993E-03 0.422E+00
   0.419E-01 0.434E+00 0.133E+04   -.538E-01 -.464E+00 -.133E+04   0.710E-02 0.187E-01 -.728E+00   0.124E-01 0.978E-03 0.453E+00
   0.953E+00 -.396E+00 0.133E+04   -.952E+00 0.394E+00 -.133E+04   -.167E-01 0.464E-02 -.663E+00   0.479E-02 -.211E-02 0.427E+00
   -.237E+00 -.109E+00 -.132E+04   0.234E+00 -.122E+00 0.132E+04   0.265E-02 0.225E+00 0.477E+00   -.234E-02 0.174E-01 0.139E+00
   0.466E-01 -.141E+00 0.261E+04   -.283E-01 0.110E+00 -.261E+04   -.138E-01 0.397E-01 -.128E+01   -.744E-02 -.170E-02 0.904E-01
   0.722E+00 0.698E+00 0.133E+04   -.755E+00 -.705E+00 -.133E+04   -.485E-02 -.165E-01 -.710E+00   0.235E-01 0.704E-02 0.442E+00
   0.196E+00 0.175E+01 0.459E+01   -.201E+00 -.174E+01 -.503E+01   0.597E-02 -.242E-01 0.125E-01   -.291E-02 0.773E-02 0.422E+00
   0.214E+01 0.127E+01 -.261E+04   -.210E+01 -.122E+01 0.261E+04   -.242E-01 -.224E-01 0.124E+01   -.515E-02 -.135E-01 -.843E-01
   0.471E+01 0.196E+01 -.261E+04   -.467E+01 -.195E+01 0.260E+04   -.540E-01 -.551E-02 0.125E+01   -.239E-02 0.135E-02 -.688E-01
   0.476E+00 -.535E+01 -.260E+04   -.470E+00 0.533E+01 0.260E+04   -.487E-02 0.362E-01 0.125E+01   -.326E-03 0.393E-02 -.709E-01
   -.481E+01 0.154E+01 -.261E+04   0.474E+01 -.155E+01 0.260E+04   0.700E-01 0.387E-03 0.125E+01   0.105E-01 0.530E-02 -.608E-01
   -.655E+00 -.532E+01 -.260E+04   0.629E+00 0.528E+01 0.260E+04   0.207E-01 0.405E-01 0.126E+01   0.349E-02 0.115E-01 -.696E-01
   -.447E+01 0.380E+01 -.260E+04   0.442E+01 -.372E+01 0.260E+04   0.633E-01 -.785E-01 0.125E+01   0.514E-02 -.952E-02 -.664E-01
   -.213E+00 0.545E+00 -.261E+04   0.199E+00 -.532E+00 0.261E+04   0.967E-02 -.134E-01 0.132E+01   0.719E-02 -.348E-02 -.917E-01
   -.207E+01 0.145E+01 -.261E+04   0.202E+01 -.139E+01 0.261E+04   0.321E-01 -.343E-01 0.124E+01   0.383E-02 -.805E-02 -.827E-01
   -.373E-01 -.284E+01 -.261E+04   0.258E-01 0.277E+01 0.261E+04   0.784E-02 0.594E-01 0.124E+01   0.296E-02 -.153E-03 -.885E-01
   0.440E+01 0.354E+01 -.261E+04   -.436E+01 -.347E+01 0.260E+04   -.465E-01 -.760E-01 0.125E+01   -.737E-02 -.557E-02 -.727E-01
   -.466E+00 -.488E+01 -.260E+04   0.448E+00 0.566E+01 0.260E+04   0.255E-01 -.842E+00 0.766E+00   -.511E-02 -.844E-02 -.453E-01
   -.474E+01 0.246E+01 -.260E+04   0.539E+01 -.285E+01 0.260E+04   -.673E+00 0.386E+00 0.778E+00   -.175E-01 0.216E-01 -.436E-01
   -.384E+01 0.247E+01 -.260E+04   0.343E+01 -.222E+01 0.260E+04   0.358E+00 -.216E+00 0.143E+01   0.199E-01 -.181E-01 -.709E-01
   0.945E-03 -.456E+01 -.260E+04   -.107E-01 0.412E+01 0.260E+04   0.115E-01 0.382E+00 0.143E+01   -.535E-02 0.208E-01 -.551E-01
   0.348E-01 -.258E+01 -.134E+04   -.278E-01 0.269E+01 0.133E+04   0.138E-02 -.946E-01 0.606E+00   -.993E-02 -.237E-01 0.148E+00
   0.122E+01 -.153E+01 0.261E+04   -.117E+01 0.146E+01 -.261E+04   -.550E-01 0.650E-01 -.132E+01   -.395E-02 -.401E-02 0.880E-01
   -.623E+00 -.786E+00 -.131E+04   0.643E+00 0.862E+00 0.131E+04   -.677E-02 -.499E-01 0.697E+00   -.374E-02 -.217E-01 0.154E+00
   0.393E+00 -.724E+00 0.261E+04   -.391E+00 0.727E+00 -.261E+04   -.239E-01 0.270E-01 -.130E+01   0.616E-02 -.521E-02 0.938E-01
   0.668E+00 -.208E+00 0.133E+04   -.668E+00 0.176E+00 -.133E+04   -.265E-01 0.552E-02 -.700E+00   0.230E-01 0.111E-01 0.448E+00
   -.714E+00 -.397E+00 0.133E+04   0.697E+00 0.356E+00 -.133E+04   0.326E-01 0.203E-01 -.696E+00   -.834E-02 0.170E-01 0.454E+00
   -.125E+01 -.752E+00 -.132E+04   0.124E+01 0.763E+00 0.131E+04   0.234E-01 0.192E-02 0.698E+00   0.864E-02 -.411E-02 0.164E+00
   -.545E+00 -.333E+00 0.261E+04   0.575E+00 0.306E+00 -.261E+04   -.301E-01 0.222E-01 -.124E+01   -.729E-02 -.198E-02 0.912E-01
   -.884E-01 0.597E+00 0.133E+04   0.115E+00 -.563E+00 -.133E+04   -.126E-02 -.339E-01 -.691E+00   -.184E-01 -.686E-03 0.451E+00
   0.422E+01 0.280E+01 -.260E+04   -.496E+01 -.321E+01 0.260E+04   0.766E+00 0.406E+00 0.868E+00   0.822E-02 0.212E-01 -.491E-01
   -.212E+00 -.168E-01 -.452E+01   0.226E+00 0.626E-02 0.418E+01   0.159E-02 0.431E-02 -.525E-01   -.153E-01 0.947E-02 0.413E+00
   0.416E+01 0.268E+01 -.260E+04   -.375E+01 -.242E+01 0.260E+04   -.353E+00 -.231E+00 0.144E+01   -.180E-01 -.944E-02 -.639E-01
   -.663E+00 -.109E+00 0.133E+04   0.640E+00 0.959E-01 -.133E+04   0.307E-01 0.988E-02 -.702E+00   -.171E-02 -.260E-02 0.451E+00
   0.211E+00 0.962E-01 0.133E+04   -.202E+00 -.113E+00 -.133E+04   -.155E-01 0.601E-02 -.644E+00   0.205E-02 0.733E-02 0.456E+00
   -.645E+00 0.181E+00 0.585E+01   0.654E+00 -.177E+00 -.627E+01   -.672E-02 0.800E-02 0.261E-01   -.126E-02 -.889E-02 0.420E+00
   0.958E+00 -.727E+00 -.131E+04   -.104E+01 0.695E+00 0.131E+04   0.535E-01 0.350E-01 0.697E+00   0.242E-01 0.177E-01 0.152E+00
   -.228E+01 0.128E+01 -.133E+04   0.239E+01 -.132E+01 0.133E+04   -.897E-01 0.414E-01 0.609E+00   -.370E-01 0.143E-01 0.144E+00
   -.387E-01 0.674E+00 0.261E+04   0.225E-01 -.679E+00 -.261E+04   -.133E-01 -.147E-01 -.130E+01   0.151E-01 0.424E-02 0.966E-01
   0.202E+00 0.180E-01 0.261E+04   -.174E+00 -.416E-01 -.261E+04   -.261E-01 0.318E-01 -.132E+01   -.138E-01 0.109E-02 0.933E-01
   -.184E+00 0.129E+01 0.133E+04   0.187E+00 -.130E+01 -.133E+04   0.270E-01 -.237E-01 -.656E+00   -.121E-01 0.603E-02 0.434E+00
[...]
   -.204E+00 0.142E+01 0.144E+01   0.275E+00 -.141E+01 -.188E+01   -.448E-01 -.303E-01 0.326E-01   -.264E-01 0.140E-01 0.422E+00
   -.112E+00 0.122E+00 0.499E+01   0.125E+00 -.135E+00 -.532E+01   -.596E-03 0.432E-02 -.680E-01   -.333E-02 0.384E-02 0.392E+00
   -.114E+01 0.737E+00 0.133E+04   0.116E+01 -.743E+00 -.133E+04   0.286E-01 -.171E-01 -.731E+00   -.238E-01 0.437E-02 0.446E+00
   0.957E-01 -.533E+00 0.636E+01   -.100E+00 0.570E+00 -.680E+01   0.451E-02 -.143E-01 0.348E-01   0.121E-03 -.223E-01 0.423E+00
   0.773E+00 -.607E+00 -.131E+04   -.790E+00 0.692E+00 0.131E+04   0.116E-01 -.475E-01 0.693E+00   -.502E-02 -.308E-01 0.152E+00
   0.317E+00 0.121E+01 -.131E+04   -.376E+00 -.124E+01 0.131E+04   0.393E-01 0.220E-01 0.700E+00   0.232E-01 0.355E-02 0.147E+00
   0.107E+00 -.457E+00 0.261E+04   -.937E-01 0.456E+00 -.261E+04   -.156E-01 0.361E-01 -.130E+01   -.274E-02 -.117E-01 0.940E-01
   0.123E+01 0.223E+00 0.261E+04   -.120E+01 -.222E+00 -.261E+04   -.723E-01 -.346E-02 -.131E+01   0.135E-01 -.436E-03 0.929E-01
   -.148E+01 -.701E+00 0.122E+01   0.152E+01 0.634E+00 -.165E+01   0.664E-02 0.624E-01 0.269E-01   -.332E-01 0.133E-01 0.412E+00
   0.117E+01 -.699E+00 0.464E+01   -.119E+01 0.702E+00 -.507E+01   -.202E-02 0.110E-01 0.480E-03   0.260E-01 -.973E-02 0.414E+00
   -.370E+00 -.295E+00 0.133E+04   0.391E+00 0.322E+00 -.133E+04   -.884E-02 -.135E-01 -.730E+00   -.243E-02 -.154E-01 0.450E+00
   0.135E+01 -.105E+01 0.223E+01   -.132E+01 0.111E+01 -.267E+01   -.496E-01 -.287E-01 0.312E-01   0.856E-02 -.264E-01 0.414E+00
   -.138E+01 -.942E+00 0.121E+01   0.137E+01 0.991E+00 -.165E+01   0.494E-01 -.272E-01 0.321E-01   -.254E-01 -.178E-01 0.417E+00
   0.310E+00 0.200E+00 -.305E+03   -.358E+00 -.246E+00 0.307E+03   0.348E-01 0.256E-01 -.134E+01   -.593E-03 0.522E-03 -.167E-01
   -.113E+00 -.725E-01 -.128E+02   -.437E-12 0.110E-12 -.114E-11   0.104E+00 0.951E-01 -.370E+01   -.231E-02 -.257E-01 0.165E+02

 POSITION                                       TOTAL-FORCE (eV/Angst)
     13.60898      8.40159      7.20860        -0.001983      0.002972     -0.013157
      5.24112      8.40441      7.20474        -0.005739     -0.014437     -0.027273
      3.84652      5.98451      7.20562         0.008175      0.019044     -0.026405
     13.62812      8.38318      0.47920        -0.009135      0.005996      0.012690
      5.25596      8.39025      0.48264         0.018095     -0.009174      0.031494
      3.86159      5.96923      0.48496         0.015508     -0.012607      0.023581
      8.03915      1.94977      2.76124         0.001601      0.023901     -0.011467
      9.43429      9.19846      2.76167        -0.005521     -0.004440     -0.003450
      2.44934      3.57173      7.20598         0.003771     -0.016654     -0.016445
      2.46446      3.55281      0.48563        -0.002905      0.015388      0.037023
     10.82974      1.95139      2.75986         0.007815      0.002395      0.007706
     13.61239      5.17755      4.98780         0.002193      0.007825     -0.002424
      3.84547      1.15656      7.20484        -0.014213      0.009538      0.000013
      9.41853      5.98606      7.23777         0.003988      0.002012     -0.018672
      5.24855      3.57667      7.21854        -0.003816     -0.001909     -0.032216
      3.86589      1.13666      0.48380         0.003579     -0.006032      0.039059
      9.43734      5.96985      0.48173         0.011873      0.010370      0.049645
      5.25527      3.55579      0.48514        -0.006247     -0.001971      0.015596
     12.22217      9.19843      2.75978        -0.000995      0.006785     -0.021706
     12.21592      7.59133      4.98002        -0.003762      0.006256      0.025884
     13.61659      6.78244      2.76146         0.008125     -0.010611     -0.026887
      9.43258      4.36731      2.76164        -0.009791      0.000285      0.020736
      8.02938      8.39840      7.21750        -0.001945      0.006258     -0.044719
      8.04638      8.38561      0.48166        -0.003683      0.007319      0.026454
     10.82462      6.78316      2.75954        -0.014604     -0.016378     -0.005834
      2.45372      0.34523      4.98437        -0.000752     -0.005218     -0.007502
     15.00349      9.21619      9.48688         0.015664      0.014675      0.001156
      3.83648      4.38393      9.48610        -0.009327     -0.000856     -0.008503
      6.62417      9.22401      9.48391         0.000561      0.013361     -0.004420
     12.21739      4.38260      9.48637         0.012450     -0.001237     -0.008046
      9.42903      9.22325      9.48412        -0.001845      0.014452     -0.001541
     10.81490      1.96207      9.48581         0.018959     -0.009212     -0.009475
      2.44662      1.96748      9.48313         0.002761     -0.003286     -0.024705
     12.20949      9.21735      9.48650        -0.017580      0.013820      0.000793
     13.60593      6.79110      9.48708        -0.000523     -0.012798     -0.003452
      5.23816      1.96288      9.48621        -0.019075     -0.008564     -0.011182
      8.02489      6.86191      9.53367         0.002477     -0.041210      0.001088
      9.46695      4.35885      9.53369        -0.013555      0.005069     -0.002832
      5.20775      6.81711      9.48403        -0.040258      0.020101     -0.010571
      8.02613      1.93548      9.48594        -0.003483     -0.045934     -0.014465
      8.03000      3.57775      7.23735        -0.001296     -0.000345     -0.020822
      8.04869      3.54957      0.48189        -0.004300     -0.004838      0.052685
      6.63491      1.15640      7.20554         0.009793      0.004674     -0.026878
      6.65291      1.13757      0.48098        -0.016061      0.025495      0.036776
     12.22253      4.36773      2.76294        -0.003248     -0.015931     -0.007684
      3.85283      4.36688      2.76468         0.006079     -0.003543     -0.004382
      1.05334      1.15653      7.20416         0.014755      0.008615     -0.004544
      1.07392      1.13749      0.48183        -0.007187     -0.007173      0.039511
      6.64378      9.20014      2.76214         0.007601      0.000315     -0.000099
      6.58771      4.36175      9.53287         0.014075      0.003967      0.000286
      8.03330      5.17710      4.99817         0.000159      0.003445      0.007971
     10.84541      6.81745      9.48400         0.038236      0.017894     -0.013673
      5.24989      1.95160      2.76386         0.005890     -0.005810     -0.009519
      2.46066      1.95048      2.76316        -0.005068     -0.003203     -0.088229
     15.00797      7.59237      4.98128         0.002729      0.001805      0.023601
     12.21213      5.98393      7.20529        -0.007458      0.019893     -0.023965
      6.64100      5.98660      7.23702        -0.007770      0.003804     -0.019939
     12.22952      5.97081      0.48135        -0.014528     -0.014349      0.035983
      6.64996      5.96918      0.48330        -0.013027      0.009543      0.050538
      8.03515      6.78375      2.76245         0.017890     -0.026037      0.022021
[...]
     10.81775      5.17664      4.98804        -0.010370      0.007646      0.009668
      6.64045      7.59037      4.98840         0.001594     -0.007164      0.013311
      5.24327      0.34469      4.98741         0.008578     -0.004350     -0.002998
      5.24677      6.78433      2.76317         0.029931     -0.017605     -0.019926
      8.03265      0.34444      4.98067         0.000986      0.002399      0.020271
      9.42421      1.15637      7.20548        -0.010361      0.007234     -0.026773
     10.81821      8.40390      7.20434         0.003638     -0.013705     -0.023928
      9.44294      1.13685      0.47993        -0.005282      0.023786      0.038105
     10.83917      8.38666      0.47885        -0.030749     -0.002390      0.032817
      5.24875      5.17689      4.98912         0.009667      0.007476      0.012439
     12.21698      2.76181      4.98450        -0.001187      0.004191     -0.008325
     15.01290      9.19969      2.76122         0.010502     -0.001182     -0.027987
      9.42670      2.76439      4.98758        -0.007519      0.005189      0.009006
      6.64144      2.76476      4.98889         0.007779      0.006009      0.012666
      8.04101      5.20695     10.38791        -0.012767     -0.019888     -0.039515
    total drift:                               -0.011983     -0.003161     -0.038728

  FREE ENERGIE OF THE ION-ELECTRON SYSTEM (eV)
  free  energy   TOTEN  =      -517.47663094 eV

  energy  without entropy=     -517.16401015  energy(sigma->0) =     -517.37242401

 d Force = 0.6269427E-04[-0.187E-04, 0.144E-03]  d Energy = 0.1124993E-03-0.498E-04
 d Force = 0.1672961E+02[ 0.167E+02, 0.167E+02]  d Ewald  = 0.1672961E+02 0.198E-05

 reached required accuracy - stopping structural energy minimisation