 vasp.5.4.4.18Apr17-6-g9f103f2a35 (build Nov 30 2020 22:55:02) complex

 executed on             LinuxIFC date 2023.06.11  18:26:50

 INCAR:
 POTCAR:    PAW_PBE Pt 04Feb2005
 POTCAR:    PAW_PBE H 15Jun2001

 POTCAR:    PAW_PBE Pt 04Feb2005
   VRHFIN =Pt: s1d9

   TITEL  = PAW_PBE Pt 04Feb2005
   POMASS =  195.080; ZVAL   =   10.000    mass and valenz
   ENMAX  =  230.283; ENMIN  =  172.712 eV

 POTCAR:    PAW_PBE H 15Jun2001
   VRHFIN =H: ultrasoft test

   TITEL  = PAW_PBE H 15Jun2001
   POMASS =    1.000; ZVAL   =    1.000    mass and valenz
   ENMAX  =  250.000; ENMIN  =  200.000 eV

 Optimization of the real space projectors (new method)

 maximal supplied QI-value         = 14.36
 optimisation between [QCUT,QGAM] = [ 11.92, 23.98] = [ 39.79,161.09] Ry
 Optimized for a Real-space Cutoff    1.49 Angstroem

   l    n(q)    QCUT    max X(q) W(low)/X(q) W(high)/X(q)  e(spline)
   2     10    11.920    66.195    0.79E-04    0.18E-03    0.24E-06
   2     10    11.920    64.643    0.81E-04    0.19E-03    0.24E-06
   0     11    11.920    95.520    0.28E-04    0.54E-04    0.18E-06
   0     11    11.920    63.403    0.27E-04    0.52E-04    0.17E-06
   1     10    11.920    19.961    0.18E-04    0.11E-03    0.23E-06
   1     10    11.920    13.289    0.25E-04    0.87E-04    0.19E-06
 Optimization of the real space projectors (new method)

 maximal supplied QI-value         = 34.20
 optimisation between [QCUT,QGAM] = [ 11.97, 23.94] = [ 40.13,160.53] Ry
 Optimized for a Real-space Cutoff    1.18 Angstroem

   l    n(q)    QCUT    max X(q) W(low)/X(q) W(high)/X(q)  e(spline)
   0      8    11.971    19.460    0.15E-03    0.31E-03    0.25E-06
   0      8    11.971    12.209    0.13E-03    0.29E-03    0.25E-06
   1      8    11.971     4.655    0.22E-03    0.24E-03    0.21E-06
  PAW_PBE Pt 04Feb2005                  :
  PAW_PBE H 15Jun2001                   :

 POSCAR: Pt111
  positions in cartesian coordinates
 exchange correlation table for  LEXCH =        8
   RHO(1)=    0.500       N(1)  =     2000
   RHO(2)=  100.500       N(2)  =     4000

 ion  position               nearest neighbor table
   1  0.785  0.869  0.327-  71 2.74  20 2.74  55 2.74  35 2.79  27 2.79  34 2.80  43 2.81  73 2.81
                            56 2.81  72 2.81   2 2.81   3 2.81
   2  0.035  0.869  0.327-  65 2.74  55 2.74  68 2.74  39 2.78  29 2.79  27 2.80  23 2.80  47 2.81
                            72 2.81   3 2.81   1 2.81  57 2.81
   3  0.035  0.619  0.327-  12 2.74  55 2.74  76 2.74  39 2.78  28 2.79  35 2.80  15 2.80   9 2.81
                            56 2.81   2 2.81   1 2.81  57 2.81
   4  0.786  0.868  0.023-  21 2.79  78 2.79  19 2.80  44 2.80  75 2.81  74 2.81  58 2.81   5 2.81
                             6 2.81
   5  0.036  0.868  0.023-  49 2.79  70 2.79  78 2.79  48 2.80   6 2.80  24 2.81  59 2.81   4 2.81
                            74 2.81
   6  0.036  0.618  0.023-  46 2.79  70 2.79  21 2.79  10 2.80   5 2.80  18 2.81  59 2.81   4 2.81
                            58 2.81
   7  0.619  0.202  0.126-  71 2.74  79 2.74  80 2.74  42 2.79  44 2.79  74 2.80  53 2.80  61 2.80
                            11 2.80  22 2.80  19 2.81  78 2.81
   8  0.369  0.952  0.126-  26 2.74  66 2.74  69 2.74  16 2.79  24 2.79  75 2.79  25 2.80  60 2.81
                            19 2.81  49 2.81  54 2.81  53 2.81
   9  0.035  0.369  0.327-  12 2.73  77 2.74  62 2.74  28 2.79  33 2.79  30 2.79  13 2.80   3 2.81
                            47 2.81  56 2.81  15 2.81  63 2.81
  10  0.036  0.369  0.023-  54 2.78  46 2.79  45 2.80  58 2.80   6 2.80  18 2.81  64 2.81  16 2.81
                            48 2.81
  11  0.869  0.202  0.126-  77 2.74  65 2.74  79 2.74  64 2.79  74 2.79  48 2.79   7 2.80  22 2.81
                            78 2.81  45 2.81  54 2.81  49 2.81
  12  0.952  0.536  0.226-   9 2.73   3 2.74  21 2.74  45 2.74  56 2.74  46 2.74  20 2.80  55 2.80
                            77 2.81  62 2.81  67 2.81  76 2.81
  13  0.285  0.119  0.327-  62 2.74  26 2.74  69 2.74  31 2.79  36 2.79  33 2.79   9 2.80  47 2.80
                            73 2.81  43 2.81  15 2.81  23 2.81
  14  0.535  0.619  0.328-  51 2.74  66 2.75  67 2.76  52 2.79  57 2.80  41 2.80  63 2.80  23 2.80
                            56 2.81  73 2.81  38 2.82  37 2.82
  15  0.285  0.369  0.327-  76 2.74  80 2.74  62 2.75  50 2.79  36 2.79  28 2.79  41 2.80  57 2.80
                             3 2.80  43 2.81  13 2.81   9 2.81
  16  0.287  0.118  0.023-  54 2.79   8 2.79  53 2.79  75 2.80  44 2.80  24 2.81  18 2.81  10 2.81
                            48 2.81
  17  0.536  0.618  0.023-  25 2.79  22 2.79  60 2.80  42 2.80  64 2.80  59 2.80  58 2.81  75 2.81
                            24 2.81
  18  0.286  0.368  0.023-  53 2.79  46 2.79  61 2.79  59 2.80  42 2.81   6 2.81  44 2.81  10 2.81
                            16 2.81
  19  0.619  0.952  0.126-  20 2.74  71 2.74  69 2.74  44 2.79  75 2.79   4 2.80  21 2.80  78 2.80
                             8 2.81  53 2.81  25 2.81   7 2.81
  20  0.702  0.785  0.226-  25 2.74  56 2.74  19 2.74   1 2.74  73 2.74  21 2.74  12 2.80  69 2.81
                            67 2.81  66 2.81  55 2.81  71 2.81
  21  0.869  0.702  0.126-  12 2.74  55 2.74  20 2.74  58 2.79   4 2.79   6 2.79  78 2.80  19 2.80
                            46 2.81  45 2.81  70 2.81  25 2.81
  22  0.619  0.452  0.126-  79 2.74  67 2.74  51 2.75  17 2.79  42 2.79  64 2.80  61 2.80  60 2.80
                             7 2.80  25 2.80  11 2.81  45 2.81
  23  0.285  0.869  0.327-  68 2.74  66 2.74  26 2.75  37 2.79  31 2.79  29 2.79  57 2.80  14 2.80
                             2 2.80  73 2.81  47 2.81  13 2.81
  24  0.286  0.868  0.023-   8 2.79  60 2.79  49 2.79  59 2.80   5 2.81  17 2.81  48 2.81  75 2.81
                            16 2.81
  25  0.619  0.702  0.126-  20 2.74  67 2.74  66 2.74  17 2.79  75 2.79  58 2.80   8 2.80  45 2.80
                            60 2.80  22 2.80  19 2.81  21 2.81
  26  0.202  0.036  0.226-  49 2.74  13 2.74   8 2.74  54 2.74  47 2.74  23 2.75  62 2.80  77 2.80
                            69 2.81  65 2.81  66 2.81  68 2.81
  27  0.868  0.953  0.430-  39 2.78  40 2.78   1 2.79  72 2.79   2 2.80  29 2.80  32 2.80  35 2.81
                            34 2.81
  28  0.117  0.453  0.430-  50 2.77   9 2.79  30 2.79   3 2.79  15 2.79  33 2.80  35 2.80  39 2.81
                            36 2.81
  29  0.117  0.954  0.430-  37 2.77  47 2.79  32 2.79   2 2.79  23 2.79  33 2.80  27 2.80  39 2.81
                            31 2.81
  30  0.869  0.453  0.430-  38 2.77  28 2.79  56 2.79  63 2.79   9 2.79  33 2.80  35 2.80  52 2.81
                            32 2.81
  31  0.368  0.953  0.430-  37 2.77  13 2.79  36 2.79  23 2.79  73 2.80  34 2.80  33 2.80  52 2.81
                            29 2.81
  32  0.869  0.202  0.430-  38 2.77  63 2.79  29 2.79  72 2.79  47 2.79  33 2.80  27 2.80  40 2.81
                            30 2.81
  33  0.118  0.203  0.430-   9 2.79  47 2.79  13 2.79  32 2.80  30 2.80  29 2.80  28 2.80  36 2.80
                            31 2.80
  34  0.618  0.953  0.430-  52 2.78  40 2.78  43 2.79  73 2.79   1 2.80  31 2.80  36 2.80  27 2.81
                            35 2.81
  35  0.868  0.703  0.430-  39 2.78  52 2.78   1 2.79  56 2.79   3 2.80  28 2.80  30 2.80  27 2.81
                            34 2.81
  36  0.368  0.202  0.430-  50 2.77  13 2.79  15 2.79  31 2.79  43 2.80  33 2.80  34 2.80  40 2.81
                            28 2.81
  37  0.365  0.708  0.432-  81 1.86  31 2.77  29 2.77  23 2.79  57 2.82  14 2.82  39 2.83  52 2.83
                            38 2.89  50 2.89
  38  0.623  0.450  0.432-  81 1.86  32 2.77  30 2.77  63 2.79  14 2.82  41 2.82  52 2.83  40 2.83
                            50 2.89  37 2.89
  39  0.115  0.704  0.430-  35 2.78  27 2.78   2 2.78   3 2.78  57 2.80  28 2.81  29 2.81  37 2.83
                            50 2.83
  40  0.619  0.200  0.430-  34 2.78  27 2.78  43 2.78  72 2.79  41 2.79  36 2.81  32 2.81  50 2.83
                            38 2.83
  41  0.535  0.369  0.328-  51 2.74  80 2.75  79 2.76  40 2.79  14 2.80  57 2.80  63 2.80  15 2.80
                            72 2.81  43 2.81  38 2.82  50 2.82
  42  0.536  0.368  0.023-   7 2.79  22 2.79  61 2.80  59 2.80  17 2.80  64 2.80  18 2.81  74 2.81
                            44 2.81
  43  0.535  0.119  0.327-  80 2.73  69 2.74  71 2.74  40 2.78  34 2.79  36 2.80  15 2.81   1 2.81
                            73 2.81  72 2.81  13 2.81  41 2.81
  44  0.536  0.118  0.023-  19 2.79   7 2.79  53 2.79  16 2.80  74 2.80   4 2.80  18 2.81  42 2.81
                            75 2.81
  45  0.869  0.452  0.126-  77 2.73  12 2.74  67 2.74  58 2.79  64 2.79  10 2.80  25 2.80  21 2.81
                            22 2.81  11 2.81  54 2.81  46 2.81
  46  0.119  0.452  0.126-  62 2.73  76 2.74  12 2.74   6 2.79  10 2.79  18 2.79  70 2.80  21 2.81
                            61 2.81  53 2.81  54 2.81  45 2.81
  47  0.035  0.119  0.327-  65 2.74  77 2.74  26 2.74  29 2.79  33 2.79  32 2.79  13 2.80   2 2.81
                             9 2.81  72 2.81  23 2.81  63 2.81
  48  0.036  0.118  0.023-  54 2.78  49 2.79  11 2.79  74 2.80   5 2.80  24 2.81  64 2.81  16 2.81
                            10 2.81
  49  0.119  0.952  0.126-  26 2.74  68 2.74  65 2.74  48 2.79   5 2.79  24 2.79  70 2.80  78 2.81
                            60 2.81   8 2.81  54 2.81  11 2.81
  50  0.365  0.450  0.432-  81 1.86  36 2.77  28 2.77  15 2.79  57 2.82  41 2.82  40 2.83  39 2.83
                            38 2.89  37 2.89
  51  0.452  0.536  0.227-  41 2.74  14 2.74  60 2.74  61 2.74  57 2.75  22 2.75  68 2.80  76 2.80
                            80 2.80  66 2.80  67 2.80  79 2.80
  52  0.619  0.704  0.430-  34 2.78  35 2.78  73 2.78  56 2.79  14 2.79  31 2.81  30 2.81  37 2.83
                            38 2.83
  53  0.369  0.202  0.126-  69 2.74  62 2.74  80 2.74  18 2.79  16 2.79  44 2.79   7 2.80  61 2.81
                            19 2.81  46 2.81  54 2.81   8 2.81
  54  0.119  0.202  0.125-  26 2.74  62 2.74  77 2.75  10 2.78  48 2.78  16 2.79  45 2.81  11 2.81
                            46 2.81  49 2.81  53 2.81   8 2.81
  55  0.952  0.786  0.226-   3 2.74  78 2.74   2 2.74  21 2.74  70 2.74   1 2.74  12 2.80  65 2.81
                            20 2.81  71 2.81  68 2.81  76 2.81
  56  0.785  0.619  0.327-  67 2.74  20 2.74  12 2.74  52 2.79  30 2.79  35 2.79  63 2.81   9 2.81
                             1 2.81  73 2.81   3 2.81  14 2.81
  57  0.285  0.619  0.328-  51 2.75  68 2.75  76 2.75  39 2.80  14 2.80  41 2.80  23 2.80  15 2.80
                             2 2.81   3 2.81  50 2.82  37 2.82
  58  0.786  0.618  0.023-  45 2.79  21 2.79  25 2.80  10 2.80  75 2.80  17 2.81   4 2.81  64 2.81
                             6 2.81
  59  0.286  0.618  0.023-  61 2.79  60 2.79  70 2.79  42 2.80  17 2.80  18 2.80  24 2.80   5 2.81
                             6 2.81
  60  0.369  0.702  0.126-  66 2.74  68 2.74  51 2.74  59 2.79  24 2.79  17 2.80  22 2.80  61 2.80
                            25 2.80  70 2.80   8 2.81  49 2.81
  61  0.369  0.452  0.126-  80 2.74  76 2.74  51 2.74  59 2.79  18 2.79  42 2.80  22 2.80  60 2.80
[...]
     12.28249      6.01763      7.18968         0.003182     -0.002051      0.001822
      6.67475      6.01641      7.21138        -0.007811      0.004714     -0.004506
     12.29348      6.00858      0.49931        -0.009319      0.001016     -0.002886
      6.68363      6.00761      0.50224        -0.011397      0.006988     -0.004842
      8.08148      6.81978      2.77710        -0.000722     -0.003110     -0.001677
[...]
     10.88175      5.20418      4.98586         0.003063      0.004054     -0.002359
      6.67668      7.63370      4.98550        -0.003229     -0.000883     -0.002378
      5.27252      0.34587      4.98175         0.001052     -0.001805      0.000695
      5.27689      6.82094      2.77431         0.002746     -0.001833      0.002102
      8.07796      0.34658      4.98075        -0.000143     -0.004514     -0.001592
      9.47744      1.15881      7.18999         0.003661     -0.000569      0.000448
     10.87952      8.44791      7.18917         0.001652      0.001356     -0.000129
      9.48766      1.14903      0.49978        -0.005951      0.007815     -0.004554
     10.89112      8.43730      0.49921        -0.007618     -0.002722     -0.005093
      5.27373      5.20402      4.98587        -0.000749      0.005086     -0.002486
     12.28811      2.77436      4.97648        -0.005514      0.002973     -0.006637
     15.09513      9.25115      2.77086        -0.003569     -0.000974     -0.000085
      9.48051      2.77703      4.98569        -0.002996     -0.003766     -0.001789
      6.67503      2.77756      4.98598         0.003681     -0.003134     -0.002633
      8.07032      5.21121     10.31864         0.002803     -0.001483      0.048179
    total drift:                                0.024968     -0.022801     -0.021435

  FREE ENERGIE OF THE ION-ELECTRON SYSTEM (eV)
  free  energy   TOTEN  =      -517.94746418 eV

  energy  without entropy=     -517.94746418  energy(sigma->0) =     -517.94746418

 d Force = 0.2653356E-03[-0.145E-02, 0.198E-02]  d Energy = 0.2171102E-03 0.482E-04
 d Force =-0.9127066E+01[-0.912E+01,-0.913E+01]  d Ewald  =-0.9127314E+01 0.248E-03

 Finite differences progress:
  Degree of freedom:   3/  3
  Displacement:        2/  2
  Total:               6/  6

 SECOND DERIVATIVES (NOT SYMMETRIZED)
              81X         81Y         81Z
 81X    -1.551792   -0.011322   -0.007704
 81Y    -0.012973   -1.566469    0.000813
 81Z    -0.008976   -0.003365   -3.801564

 Eigenvectors and eigenvalues of the dynamical matrix

   1 f  =   30.481315 THz   191.519751 2PiTHz 1016.747196 cm-1   126.060631 meV
             X         Y         Z           dx          dy          dz
     13.685469  8.447763  7.190412            0           0           0
      5.269579  8.447798  7.189271            0           0           0
      3.866395  6.017073  7.189264            0           0           0
     13.696129  8.438454  0.496475            0           0           0
      5.279931  8.436808  0.499084            0           0           0
      3.877813  6.008571  0.498973            0           0           0
      8.080623  1.964219  2.773947            0           0           0
      9.484597  9.248972  2.773011            0           0           0
      2.463130  3.587887  7.186150            0           0           0
      2.474246  3.582264  0.499594            0           0           0
     10.884469  1.963553  2.773148            0           0           0
     13.688932  5.206105  4.981570            0           0           0
      3.865486  1.158847  7.186841            0           0           0
      9.474226  6.016081  7.211693            0           0           0
      5.273759  3.590847  7.196325            0           0           0
      3.879445  1.147124  0.500529            0           0           0
      9.488058  6.007735  0.501650            0           0           0
      5.280364  3.578899  0.500134            0           0           0
     12.290198  9.251120  2.771402            0           0           0
     12.285596  7.634228  4.980766            0           0           0
     13.693036  6.822499  2.770819            0           0           0
      9.481751  4.393304  2.777744            0           0           0
      8.074277  8.442537  7.195964            0           0           0
      8.084948  8.437475  0.499924            0           0           0
     10.885328  6.821112  2.774151            0           0           0
      2.466590  0.348638  4.975966            0           0           0
     15.085606  9.259635  9.467320            0           0           0
      3.855196  4.399444  9.463154            0           0           0
      6.665278  9.267340  9.463504            0           0           0
     12.287357  4.399895  9.464005            0           0           0
      9.477300  9.266759  9.464122            0           0           0
     10.881260  1.964474  9.463699            0           0           0
      2.459271  1.970962  9.461004            0           0           0
     12.278800  9.260198  9.466955            0           0           0
     13.683069  6.829694  9.466829            0           0           0
      5.260883  1.964926  9.464081            0           0           0
      8.071153  6.879997  9.504298            0           0           0
      9.516532  4.375965  9.504346            0           0           0
      5.239300  6.845260  9.462789            0           0           0
      8.070360  1.939437  9.464422            0           0           0
      8.074627  3.591123  7.211837            0           0           0
      8.085579  3.579882  0.501695            0           0           0
      6.671482  1.158370  7.189745            0           0           0
      6.683207  1.148814  0.499281            0           0           0
     12.287679  4.393951  2.772959            0           0           0
      3.874709  4.393892  2.772988            0           0           0
      1.060603  1.158086  7.185956            0           0           0
      1.067924  1.146729  0.500014            0           0           0
      6.677911  9.249045  2.773219            0           0           0
      6.626319  4.375600  9.504276            0           0           0
      8.077505  5.205583  4.995195            0           0           0
     10.903548  6.845958  9.463470            0           0           0
      5.278120  1.963157  2.773245            0           0           0
      2.469265  1.963092  2.760248            0           0           0
     15.092423  7.634685  4.980665            0           0           0
     12.282486  6.017631  7.189677            0           0           0
      6.674755  6.016414  7.211379            0           0           0
     12.293483  6.008584  0.499307            0           0           0
      6.683630  6.007614  0.502239            0           0           0
      8.081479  6.819781  2.777101            0           0           0
[...]
     10.881746  5.204176  4.985864            0           0           0
      6.676682  7.633702  4.985498            0           0           0
      5.272520  0.345869  4.981748            0           0           0
      5.276894  6.820941  2.774306            0           0           0
      8.077957  0.346584  4.980746            0           0           0
      9.477438  1.158809  7.189994            0           0           0
     10.879524  8.447910  7.189170            0           0           0
      9.487660  1.149034  0.499778            0           0           0
     10.891116  8.437298  0.499211            0           0           0
      5.273734  5.204021  4.985874            0           0           0
     12.288108  2.774360  4.976477            0           0           0
     15.095130  9.251146  2.770859            0           0           0
      9.480511  2.777029  4.985692            0           0           0
      6.675031  2.777558  4.985976            0           0           0
      8.070317  5.211210 10.333636     0.003710    0.000591    0.999993

[...]

   3 f  =   19.431377 THz   122.090945 2PiTHz  648.160963 cm-1    80.361746 meV
             X         Y         Z           dx          dy          dz
     13.685469  8.447763  7.190412            0           0           0
      5.269579  8.447798  7.189271            0           0           0
      3.866395  6.017073  7.189264            0           0           0
     13.696129  8.438454  0.496475            0           0           0
      5.279931  8.436808  0.499084            0           0           0
      3.877813  6.008571  0.498973            0           0           0
      8.080623  1.964219  2.773947            0           0           0
      9.484597  9.248972  2.773011            0           0           0
      2.463130  3.587887  7.186150            0           0           0
      2.474246  3.582264  0.499594            0           0           0
     10.884469  1.963553  2.773148            0           0           0
     13.688932  5.206105  4.981570            0           0           0
      3.865486  1.158847  7.186841            0           0           0
      9.474226  6.016081  7.211693            0           0           0
      5.273759  3.590847  7.196325            0           0           0
      3.879445  1.147124  0.500529            0           0           0
      9.488058  6.007735  0.501650            0           0           0
      5.280364  3.578899  0.500134            0           0           0
     12.290198  9.251120  2.771402            0           0           0
     12.285596  7.634228  4.980766            0           0           0
     13.693036  6.822499  2.770819            0           0           0
      9.481751  4.393304  2.777744            0           0           0
      8.074277  8.442537  7.195964            0           0           0
      8.084948  8.437475  0.499924            0           0           0
     10.885328  6.821112  2.774151            0           0           0
      2.466590  0.348638  4.975966            0           0           0
     15.085606  9.259635  9.467320            0           0           0
      3.855196  4.399444  9.463154            0           0           0
      6.665278  9.267340  9.463504            0           0           0
     12.287357  4.399895  9.464005            0           0           0
      9.477300  9.266759  9.464122            0           0           0
     10.881260  1.964474  9.463699            0           0           0
      2.459271  1.970962  9.461004            0           0           0
     12.278800  9.260198  9.466955            0           0           0
     13.683069  6.829694  9.466829            0           0           0
      5.260883  1.964926  9.464081            0           0           0
      8.071153  6.879997  9.504298            0           0           0
      9.516532  4.375965  9.504346            0           0           0
      5.239300  6.845260  9.462789            0           0           0
      8.070360  1.939437  9.464422            0           0           0
      8.074627  3.591123  7.211837            0           0           0
      8.085579  3.579882  0.501695            0           0           0
      6.671482  1.158370  7.189745            0           0           0
      6.683207  1.148814  0.499281            0           0           0
     12.287679  4.393951  2.772959            0           0           0
      3.874709  4.393892  2.772988            0           0           0
      1.060603  1.158086  7.185956            0           0           0
      1.067924  1.146729  0.500014            0           0           0
      6.677911  9.249045  2.773219            0           0           0
      6.626319  4.375600  9.504276            0           0           0
      8.077505  5.205583  4.995195            0           0           0
     10.903548  6.845958  9.463470            0           0           0
      5.278120  1.963157  2.773245            0           0           0
      2.469265  1.963092  2.760248            0           0           0
     15.092423  7.634685  4.980665            0           0           0
     12.282486  6.017631  7.189677            0           0           0
      6.674755  6.016414  7.211379            0           0           0
     12.293483  6.008584  0.499307            0           0           0
      6.683630  6.007614  0.502239            0           0           0
      8.081479  6.819781  2.777101            0           0           0
[...]
     10.881746  5.204176  4.985864            0           0           0
      6.676682  7.633702  4.985498            0           0           0
      5.272520  0.345869  4.981748            0           0           0
      5.276894  6.820941  2.774306            0           0           0
      8.077957  0.346584  4.980746            0           0           0
      9.477438  1.158809  7.189994            0           0           0
     10.879524  8.447910  7.189170            0           0           0
      9.487660  1.149034  0.499778            0           0           0
     10.891116  8.437298  0.499211            0           0           0
      5.273734  5.204021  4.985874            0           0           0
     12.288108  2.774360  4.976477            0           0           0
     15.095130  9.251146  2.770859            0           0           0
      9.480511  2.777029  4.985692            0           0           0
      6.675031  2.777558  4.985976            0           0           0
      8.070317  5.211210 10.333636     0.871202   -0.490916   -0.002942

 Finite differences POTIM=  1.500000000000000E-002
  LATTYP: Found a hexagonal cell.
 ALAT       =    11.2227001190
 C/A-ratio  =     1.9603125600

  Lattice vectors:

 A1 = (   5.6113500595,  -9.7191434021,   0.0000000000)
 A2 = ( -11.2227001190,   0.0000000000,   0.0000000000)
 A3 = (   0.0000000000,   0.0000000000, -22.0000000000)

Analysis of symmetry for initial positions (statically):
 Subroutine PRICEL returns:
 Original cell was already a primitive cell.

[...]

The static configuration has the point symmetry C_1 .

Analysis of symmetry for dynamics (positions and initial velocities):
 Subroutine PRICEL returns:
 Original cell was already a primitive cell.

[...]

The dynamic configuration has the point symmetry C_1 .

Analysis of constrained symmetry for selective dynamics:
 Subroutine PRICEL returns:
 Original cell was already a primitive cell.

[...]

The constrained configuration has the point symmetry C_1 .

Analysis of structural, dynamic, and magnetic symmetry:
 Subroutine PRICEL returns:
 Original cell was already a primitive cell.

 Routine SETGRP: Setting up the symmetry group for a
 hexagonal supercell.

 Subroutine GETGRP returns: Found  1 space group operations
 (whereof  1 operations were pure point group operations)
 out of a pool of 24 trial point group operations.

The magnetic configuration has the point symmetry C_1 .

 Subroutine INISYM returns: Found  1 space group operations
 (whereof  1 operations are pure point group operations),
 and found     1 'primitive' translations

 KPOINTS: mesh auto

Automatic generation of k-mesh.
Space group operators:
 irot       det(A)        alpha          n_x          n_y          n_z        tau_x        tau_y        tau_z
    1     1.000000     0.000000     1.000000     0.000000     0.000000     0.000000     0.000000     0.000000

 Subroutine IBZKPT returns following result:

 Found     10 irreducible k-points:

 Following reciprocal coordinates:
            Coordinates               Weight
  0.000000  0.000000  0.000000      1.000000
  0.250000  0.000000  0.000000      2.000000
  0.500000  0.000000  0.000000      1.000000
  0.000000  0.250000  0.000000      2.000000
  0.250000  0.250000  0.000000      2.000000
  0.500000  0.250000  0.000000      2.000000
 -0.250000  0.250000  0.000000      2.000000
  0.000000  0.500000  0.000000      1.000000
  0.250000  0.500000  0.000000      2.000000
  0.500000  0.500000  0.000000      1.000000

 Following cartesian coordinates:
            Coordinates               Weight
  0.000000  0.000000  0.000000      1.000000
  0.022276 -0.012861  0.000000      2.000000
  0.044553 -0.025722  0.000000      1.000000
  0.000000  0.025722  0.000000      2.000000
  0.022276  0.012861  0.000000      2.000000
  0.044553  0.000000  0.000000      2.000000
 -0.022276  0.038584  0.000000      2.000000
  0.000000  0.051445  0.000000      1.000000
  0.022276  0.038584  0.000000      2.000000
  0.044553  0.025722  0.000000      1.000000

 TETIRR: Found     48 inequivalent tetrahedra from       96
 BZINTS: Fermi energy:  2.806993;801.000000 electrons
         Band energy:-379.460783;  BLOECHL correction: -0.131712