 vasp.5.4.4.18Apr17-6-g9f103f2a35 (build Nov 30 2020 22:55:02) complex

 executed on             LinuxIFC date 2023.08.04  13:05:02

 INCAR:
 POTCAR:    PAW_PBE Pt 04Feb2005
 POTCAR:    PAW_PBE Cu 22Jun2005
 POTCAR:    PAW_PBE Ni 02Aug2007
 POTCAR:    PAW_PBE Fe 06Sep2000
 POTCAR:    PAW_PBE Co 02Aug2007
 POTCAR:    PAW_PBE H 15Jun2001

 POTCAR:    PAW_PBE Pt 04Feb2005
   VRHFIN =Pt: s1d9

   TITEL  = PAW_PBE Pt 04Feb2005
   POMASS =  195.080; ZVAL   =   10.000    mass and valenz
   ENMAX  =  230.283; ENMIN  =  172.712 eV

 POTCAR:    PAW_PBE Cu 22Jun2005
   VRHFIN =Cu: d10 p1

   TITEL  = PAW_PBE Cu 22Jun2005
   POMASS =   63.546; ZVAL   =   11.000    mass and valenz
   ENMAX  =  295.446; ENMIN  =  221.585 eV

 POTCAR:    PAW_PBE Ni 02Aug2007
   VRHFIN =Ni:

   TITEL  = PAW_PBE Ni 02Aug2007
   POMASS =   58.690; ZVAL   =   10.000    mass and valenz
   ENMAX  =  269.532; ENMIN  =  202.149 eV

 POTCAR:    PAW_PBE Fe 06Sep2000
   VRHFIN =Fe:  d7 s1

   TITEL  = PAW_PBE Fe 06Sep2000
   POMASS =   55.847; ZVAL   =    8.000    mass and valenz
   ENMAX  =  267.882; ENMIN  =  200.911 eV

 POTCAR:    PAW_PBE Co 02Aug2007
   VRHFIN =Co: d8 s1

   TITEL  = PAW_PBE Co 02Aug2007
   POMASS =   58.933; ZVAL   =    9.000    mass and valenz
   ENMAX  =  267.968; ENMIN  =  200.976 eV

 POTCAR:    PAW_PBE H 15Jun2001
   VRHFIN =H: ultrasoft test

   TITEL  = PAW_PBE H 15Jun2001
   POMASS =    1.000; ZVAL   =    1.000    mass and valenz
   ENMAX  =  250.000; ENMIN  =  200.000 eV

 Optimization of the real space projectors (new method)

 maximal supplied QI-value         = 14.36
 optimisation between [QCUT,QGAM] = [ 11.92, 23.98] = [ 39.79,161.09] Ry
 Optimized for a Real-space Cutoff    1.49 Angstroem

   l    n(q)    QCUT    max X(q) W(low)/X(q) W(high)/X(q)  e(spline)
   2     10    11.920    66.195    0.79E-04    0.18E-03    0.24E-06
   2     10    11.920    64.643    0.81E-04    0.19E-03    0.24E-06
   0     11    11.920    95.520    0.28E-04    0.54E-04    0.18E-06
   0     11    11.920    63.403    0.27E-04    0.52E-04    0.17E-06
   1     10    11.920    19.961    0.18E-04    0.11E-03    0.23E-06
   1     10    11.920    13.289    0.25E-04    0.87E-04    0.19E-06
 Optimization of the real space projectors (new method)

[...]

   l    n(q)    QCUT    max X(q) W(low)/X(q) W(high)/X(q)  e(spline)
   2      9    11.864    65.824    0.22E-03    0.53E-03    0.26E-06
   2      9    11.864    61.429    0.22E-03    0.53E-03    0.26E-06
   0      9    11.864    56.174    0.21E-03    0.32E-04    0.15E-06
   0      9    11.864    31.263    0.19E-03    0.30E-04    0.14E-06
   1      9    11.864    19.828    0.63E-04    0.30E-03    0.16E-06
   1      9    11.864    15.139    0.49E-04    0.25E-03    0.13E-06
 Optimization of the real space projectors (new method)

 maximal supplied QI-value         = 34.20
 optimisation between [QCUT,QGAM] = [ 11.97, 23.94] = [ 40.13,160.53] Ry
 Optimized for a Real-space Cutoff    1.18 Angstroem

   l    n(q)    QCUT    max X(q) W(low)/X(q) W(high)/X(q)  e(spline)
   0      8    11.971    19.460    0.15E-03    0.31E-03    0.25E-06
   0      8    11.971    12.209    0.13E-03    0.29E-03    0.25E-06
   1      8    11.971     4.655    0.22E-03    0.24E-03    0.21E-06
  PAW_PBE Pt 04Feb2005                  :
  PAW_PBE Cu 22Jun2005                  :
  PAW_PBE Ni 02Aug2007                  :
  PAW_PBE Fe 06Sep2000                  :
  PAW_PBE Co 02Aug2007                  :
  PAW_PBE H 15Jun2001                   :

 POSCAR: 10.56
  positions in cartesian coordinates
 exchange correlation table for  LEXCH =        8
   RHO(1)=    0.500       N(1)  =     2000
   RHO(2)=  100.500       N(2)  =     4000

 ion  position               nearest neighbor table
   1  0.789  0.875  0.317-  49 2.57  59 2.59  19 2.62  61 2.66  33 2.66  60 2.67  29 2.68  28 2.71
                             2 2.72   4 2.82  11 2.86  12 2.88
   2  0.044  0.881  0.316-  79 2.55  77 2.56  60 2.61  30 2.64  28 2.65  22 2.66  52 2.69   1 2.72
                            33 2.73   6 2.75   4 2.82  16 2.88
   3  0.288  0.377  0.320-  64 2.57  39 2.60  33 2.61  68 2.63  31 2.64  19 2.68  30 2.71  43 2.71
                             5 2.76  18 2.78  13 2.80  25 2.84
   4  0.878  0.958  0.424-  12 2.62  17 2.64  16 2.64  11 2.64   9 2.65   6 2.66  60 2.70   1 2.82
                             2 2.82
   5  0.129  0.456  0.426-  13 2.60  10 2.63  12 2.63  25 2.64   7 2.65  16 2.65   3 2.76  39 2.77
                            33 2.78
   6  0.129  0.958  0.421-   8 2.59  14 2.63  10 2.63  16 2.66   9 2.66   4 2.66   2 2.75  52 2.78
                            22 2.86
   7  0.879  0.454  0.426-  82 1.84  10 2.61   9 2.61   5 2.65  15 2.65  12 2.69  27 2.69  39 2.74
                            29 2.79  75 2.82
   8  0.375  0.958  0.423-  81 1.86   6 2.59  27 2.63  14 2.63  10 2.64  13 2.66  11 2.67  43 2.70
                            52 2.74  61 2.74
   9  0.877  0.209  0.421-   7 2.61  15 2.63  17 2.63  60 2.64  10 2.64   4 2.65   6 2.66  75 2.70
                            22 2.82
  10  0.127  0.209  0.422-   7 2.61  13 2.62   5 2.63   6 2.63   8 2.64   9 2.64  43 2.72  39 2.73
                            22 2.82
  11  0.627  0.959  0.428-  81 1.68  17 2.64   4 2.64  13 2.66   8 2.67  12 2.68  27 2.68   1 2.86
                            61 2.89  19 2.89
  12  0.881  0.708  0.428-  82 1.80  16 2.61   4 2.62   5 2.63  11 2.68   7 2.69  27 2.74  33 2.76
                            29 2.88   1 2.88
  13  0.374  0.210  0.426-   5 2.60  10 2.62  25 2.64  11 2.66   8 2.66  17 2.67   3 2.80  43 2.83
                            19 2.87
  14  0.376  0.708  0.426-  27 2.60  16 2.62  25 2.62   6 2.63   8 2.63  15 2.65  44 2.76  30 2.77
                            52 2.85
  15  0.627  0.457  0.424-  27 2.62  17 2.62   9 2.63  25 2.63  14 2.65   7 2.65  18 2.75  44 2.76
                            75 2.79
  16  0.128  0.708  0.425-  12 2.61  14 2.62  25 2.63   4 2.64   5 2.65   6 2.66  33 2.78  30 2.79
                             2 2.88
  17  0.628  0.208  0.425-  15 2.62   9 2.63  11 2.64   4 2.64  25 2.65  13 2.67  60 2.71  18 2.78
                            19 2.90
  18  0.555  0.370  0.317-  67 2.53  75 2.55  60 2.56  68 2.60  26 2.68  44 2.68  19 2.72  15 2.75
                            30 2.76   3 2.78  17 2.78  25 2.91
  19  0.538  0.121  0.315-  59 2.54  80 2.55  68 2.56  43 2.60  61 2.61   1 2.62   3 2.68  18 2.72
                            60 2.74  13 2.87  11 2.89  17 2.90
  20  0.547  0.122  0.038-  57 2.54  37 2.59  48 2.60  62 2.60  47 2.60  34 2.65  45 2.68  63 2.71
                            56 2.75
  21  0.124  0.462  0.127-  36 2.55  47 2.57  40 2.58  58 2.61  42 2.61  64 2.63  31 2.66  69 2.66
                            50 2.67  74 2.69  70 2.69  57 2.69
  22  0.041  0.134  0.313-  65 2.46  55 2.53  75 2.53  77 2.57  39 2.59  43 2.59  60 2.66   2 2.66
                            52 2.74   9 2.82  10 2.82   6 2.86
  23  0.032  0.135  0.034-  70 2.57  62 2.59  40 2.59  41 2.60  76 2.63  45 2.70  24 2.70  35 2.71
                            53 2.86
  24  0.127  0.955  0.132-  79 2.52  55 2.55  53 2.61  35 2.62  77 2.62  58 2.62  73 2.64  70 2.65
                            38 2.67  66 2.68  23 2.70  41 2.74
  25  0.377  0.459  0.427-  14 2.62  16 2.63  15 2.63   5 2.64  13 2.64  17 2.65   3 2.84  30 2.85
                            18 2.91
  26  0.458  0.546  0.220-  73 2.50  74 2.51  51 2.53  79 2.60  64 2.61  30 2.65  68 2.66  18 2.68
                            32 2.69  44 2.70  78 2.71  67 2.74
  27  0.623  0.708  0.424-  82 1.91  14 2.60  15 2.62   8 2.63  11 2.68   7 2.69  44 2.70  12 2.74
                            29 2.77  61 2.77
  28  0.964  0.793  0.218-  66 2.54  50 2.56  58 2.58  77 2.63  42 2.64   2 2.65  64 2.65  79 2.68
                            59 2.70   1 2.71  49 2.75  33 2.75
  29  0.791  0.622  0.320-  44 2.59  42 2.60  39 2.60  32 2.62  75 2.63  61 2.65  33 2.66  49 2.67
                             1 2.68  27 2.77   7 2.79  12 2.88
  30  0.294  0.631  0.319-  79 2.56  64 2.60  44 2.61  52 2.62   2 2.64  26 2.65  33 2.70   3 2.71
                            18 2.76  14 2.77  16 2.79  25 2.85
  31  0.211  0.284  0.223-  57 2.55  70 2.55  65 2.59  55 2.61  43 2.62  80 2.64   3 2.64  21 2.66
                            39 2.66  68 2.67  42 2.71  64 2.72
  32  0.717  0.537  0.221-  69 2.51  54 2.56  51 2.57  65 2.60  42 2.61  29 2.62  75 2.64  67 2.64
                            49 2.68  26 2.69  44 2.74  78 2.78
  33  0.041  0.624  0.321-  42 2.58  39 2.59   3 2.61  64 2.64  29 2.66   1 2.66  30 2.70   2 2.73
                            28 2.75  12 2.76  16 2.78   5 2.78
  34  0.797  0.870  0.037-  50 2.48  66 2.50  36 2.54  48 2.61  35 2.62  63 2.64  71 2.65  20 2.65
                            62 2.72
  35  0.044  0.872  0.035-  58 2.56  36 2.57  66 2.61  24 2.62  34 2.62  72 2.70  23 2.71  62 2.72
                            53 2.74
  36  0.039  0.631  0.035-  58 2.54  34 2.54  21 2.55  35 2.57  50 2.59  40 2.68  71 2.72  72 2.76
                            47 2.78
  37  0.626  0.214  0.133-  68 2.52  59 2.52  67 2.52  41 2.56  51 2.57  56 2.58  66 2.59  20 2.59
                            74 2.60  62 2.60  57 2.64  48 2.76
  38  0.376  0.961  0.131-  80 2.47  53 2.51  55 2.53  78 2.53  63 2.53  45 2.55  54 2.58  48 2.61
                            57 2.62  24 2.67  70 2.69  73 2.69
  39  0.041  0.379  0.321-  33 2.59  22 2.59  29 2.60  42 2.60   3 2.60  75 2.63  31 2.66  65 2.66
                            43 2.72  10 2.73   7 2.74   5 2.77
  40  0.040  0.377  0.033-  69 2.55  21 2.58  23 2.59  76 2.61  70 2.61  45 2.66  71 2.67  36 2.68
                            47 2.81
  41  0.868  0.215  0.131-  67 2.47  65 2.53  76 2.53  77 2.53  37 2.56  51 2.56  62 2.57  69 2.59
                            23 2.60  70 2.61  66 2.63  24 2.74
  42  0.960  0.545  0.225-  33 2.58  29 2.60  39 2.60  50 2.61  32 2.61  21 2.61  28 2.64  64 2.65
                            69 2.68  65 2.69  49 2.70  31 2.71
  43  0.294  0.118  0.320-  52 2.52  55 2.58  61 2.59  22 2.59  19 2.60  31 2.62  80 2.65   8 2.70
                             3 2.71  39 2.72  10 2.72  13 2.83
  44  0.541  0.630  0.321-  61 2.55  52 2.56  29 2.59  30 2.61  78 2.63  18 2.68  27 2.70  26 2.70
                            75 2.73  32 2.74  14 2.76  15 2.76
  45  0.292  0.126  0.037-  38 2.55  57 2.57  70 2.59  40 2.66  53 2.66  20 2.68  23 2.70  47 2.70
                            63 2.74
  46  0.545  0.626  0.042-  73 2.43  51 2.44  54 2.47  71 2.53  53 2.54  76 2.54  63 2.55  72 2.56
                            56 2.56
  47  0.307  0.374  0.039-  74 2.45  57 2.52  56 2.54  21 2.57  20 2.60  72 2.62  45 2.70  36 2.78
                            40 2.81
  48  0.628  0.952  0.133-  49 2.43  80 2.48  59 2.50  63 2.52  50 2.54  54 2.54  20 2.60  34 2.61
                            66 2.61  38 2.61  57 2.66  37 2.76
  49  0.701  0.798  0.223-  48 2.43  54 2.51  80 2.51  78 2.56   1 2.57  50 2.57  61 2.58  59 2.60
                            29 2.67  32 2.68  42 2.70  28 2.75
  50  0.866  0.710  0.128-  71 2.42  34 2.48  48 2.54  28 2.56  49 2.57  54 2.58  36 2.59  42 2.61
                            69 2.64  21 2.67  66 2.71  58 2.84
[...]
   0.488E+02 0.310E+02 0.396E+01   -.494E+02 -.304E+02 -.407E+01   0.599E+00 -.562E+00 0.244E-01   0.120E-01 -.153E-01 0.112E-01
   0.200E+02 0.732E+02 -.141E+02   -.199E+02 -.723E+02 0.144E+02   -.384E-01 -.102E+01 -.439E+00   -.228E-01 -.833E-02 0.138E-01
   0.993E+02 0.441E+02 0.352E+02   -.987E+02 -.439E+02 -.355E+02   -.516E+00 -.272E+00 0.180E+00   0.139E-01 -.149E-02 0.157E-01
   -.767E+02 -.104E+03 0.130E+02   0.772E+02 0.104E+03 -.132E+02   -.397E+00 0.360E+00 0.151E+00   -.117E-01 -.131E-01 0.142E-01
   0.530E+01 -.109E+01 -.349E+03   -.597E+01 0.117E+01 0.351E+03   0.679E+00 -.354E-01 -.196E+01   -.368E-03 0.901E-03 -.740E-03
   0.336E+01 -.842E+00 -.347E+03   -.362E+01 0.875E+00 0.349E+03   0.281E+00 -.386E-01 -.170E+01   -.109E-02 -.396E-03 0.835E-03
   -.245E+01 0.571E+00 -.733E+00   0.179E-12 0.243E-12 0.136E-11   0.248E+01 -.566E+00 0.437E+00   -.205E-01 -.200E-01 0.297E+00

 POSITION                                       TOTAL-FORCE (eV/Angst)
     12.95929      8.00619      6.97486        -0.009155      0.026832      0.032868
      5.11429      8.05822      6.94918         0.012136      0.019612      0.033908
      5.03387      3.44996      7.03442         0.029065     -0.009742      0.033042
     14.32352      8.75703      9.32135         0.032280      0.037847     -0.043544
      3.76971      4.17413      9.37971         0.025473      0.051610     -0.004381
      6.42729      8.76516      9.25532         0.014829     -0.016263      0.015601
     11.68394      4.15561      9.36511        -0.015322     -0.051369     -0.034199
      9.01985      8.75900      9.30636        -0.086580      0.000088     -0.035704
     10.36030      1.91098      9.26703        -0.050479      0.005683      0.016979
      2.44423      1.90882      9.29113         0.034266     -0.038750     -0.012559
     11.68344      8.77436      9.41919         0.011194      0.029833      0.010636
     13.04423      6.47122      9.41055         0.062360     -0.008192     -0.038465
      5.06509      1.92457      9.37724         0.023909      0.037731      0.025776
      7.71353      6.47592      9.37043         0.009081      0.000976     -0.015075
      9.03494      4.18185      9.31859        -0.013205     -0.026453      0.000873
      5.08997      6.47309      9.35646         0.008004     -0.048166     -0.002585
      7.73137      1.90384      9.33905        -0.009727      0.015581     -0.020593
      7.81115      3.38396      6.98352        -0.003827      0.010672      0.020649
      6.32114      1.10551      6.93511        -0.007146     -0.017286      0.019089
      6.42748      1.11951      0.84379        -0.084441     -0.185881     -0.004543
      3.74457      4.22498      2.80295         0.011746      0.035191     -0.028683
      1.13871      1.22696      6.88621         0.006932     -0.030068      0.023158
      1.05351      1.23301      0.75714        -0.044482      0.004582     -0.008457
      6.37970      8.73232      2.89580        -0.042054     -0.022563      0.023104
      6.40642      4.20026      9.40325        -0.036446      0.019710     -0.002382
      7.71519      4.98986      4.84188        -0.008287     -0.031691     -0.063616
     10.30950      6.47041      9.33286        -0.070842      0.016368     -0.023982
     14.36690      7.24966      4.78751        -0.033623     -0.053263     -0.110401
     11.63075      5.68504      7.03174        -0.011983     -0.036222      0.024817
      6.43088      5.76980      7.01864        -0.007055     -0.004691      0.015352
      3.72880      2.59487      4.89932        -0.016421     -0.058111     -0.019325
     10.40714      4.90964      4.85294         0.035294      0.049046      0.033675
      3.72728      5.70671      7.06367         0.005811     -0.006751     -0.010709
     13.01076      7.95414      0.82285        -0.156111      0.043669     -0.057490
      5.07062      7.97664      0.75916         0.016043      0.030238      0.001389
      3.74725      5.77233      0.77268         0.002375     -0.004985      0.009953
      7.73906      1.95923      2.91892         0.029180      0.018135      0.000726
      9.04575      8.78897      2.87226         0.068887     -0.064263     -0.077816
      2.43054      3.46719      7.05560         0.003025     -0.009409      0.004871
      2.40788      3.44595      0.73676        -0.012905      0.042944      0.000866
     10.29842      1.96823      2.88139         0.021112      0.001924     -0.006868
     13.01351      4.98805      4.94410         0.010203     -0.011481      0.004538
      3.72424      1.07541      7.03971        -0.006340     -0.000001      0.007492
      9.03845      5.76543      7.06113         0.011674      0.002790      0.003004
      3.74683      1.15285      0.81959         0.035077     -0.125674     -0.008452
      9.06513      5.72471      0.92537         0.108466      0.110961     -0.075065
      5.21212      3.41637      0.86086         0.015242     -0.000146     -0.001755
     11.65625      8.70496      2.91787        -0.066171     -0.060174     -0.010381
     11.62151      7.29974      4.90178         0.051649     -0.014335      0.049192
     12.89980      6.49745      2.82364         0.041573     -0.036214      0.012160
      9.01343      4.18612      2.81919        -0.011528      0.001207      0.003839
      7.80272      8.00517      6.96774         0.012174      0.005807      0.009914
      7.81053      7.92859      0.86888         0.125892      0.040465     -0.024302
     10.31657      6.54831      2.89472         0.021820      0.074995     -0.046089
      2.46166      0.31661      4.92733         0.027412     -0.024354     -0.027051
      7.75154      3.52543      0.86333        -0.009478      0.010015      0.033929
      5.10291      1.89984      2.87069         0.000875      0.058138      0.021314
      5.17349      6.40557      2.77226        -0.010635      0.035979      0.029569
      7.65418      0.39388      4.89233        -0.104416     -0.077949     -0.029449
      9.05309      1.14436      7.10431         0.040996      0.008756     -0.015259
[...]
      6.39598      2.67997      4.92292         0.031373     -0.049758     -0.048072
     11.64052      4.17844      2.78900         0.023650      0.017381      0.016699
      2.34972      1.92500      2.86197         0.009811      0.024894      0.018741
     11.59075      5.72177      0.94802        -0.246750      0.156643      0.039271
      6.50379      5.69604      0.91052         0.020523     -0.009426     -0.024266
      7.71278      6.45493      2.81038        -0.059628      0.027198      0.132903
      6.43155      4.20716      2.83788        -0.022313     -0.010098     -0.015475
     10.36356      3.37807      7.00080         0.002783     -0.001331      0.009777
     10.36553      3.54396      0.90454         0.004530      0.016919     -0.018586
     10.23662      0.46679      4.91587        -0.044965      0.042486     -0.006104
      9.06408      7.34028      4.95059         0.039210     -0.037546     -0.023133
      6.48344      7.27349      4.94428         0.073781     -0.060386     -0.113130
      5.04827      0.31035      4.87551         0.055378     -0.005817      0.013489
     10.42062      8.81075     10.53023         0.014986      0.041092      0.029557
     11.72296      5.70403     10.34344         0.013008     -0.004242      0.107292
    total drift:                                0.014576     -0.014626      0.000539

  FREE ENERGIE OF THE ION-ELECTRON SYSTEM (eV)
  free  energy   TOTEN  =      -517.10833360 eV

  energy  without entropy=     -517.10833360  energy(sigma->0) =     -517.10833360

 d Force =-0.6725521E-03[-0.322E-02, 0.187E-02]  d Energy =-0.3777059E-04-0.635E-03
 d Force =-0.1047310E+02[-0.105E+02,-0.105E+02]  d Ewald  =-0.1047335E+02 0.250E-03

 Finite differences progress:
  Degree of freedom:   6/  6
  Displacement:        2/  2
  Total:              12/ 12

 SECOND DERIVATIVES (NOT SYMMETRIZED)
              81X         81Y         81Z         82X         82Y         82Z
 81X    -2.716248    0.097211    3.133997   -0.021479   -0.014553    0.007165
 81Y     0.087935   -0.112394   -0.145164   -0.015376    0.040063   -0.000365
 81Z     3.134159   -0.142874   -7.749674    0.017038   -0.039044   -0.013983
 82X    -0.015765   -0.018985    0.000847   -1.402107   -0.383657    1.103961
 82Y    -0.015071    0.038411   -0.037753   -0.397403   -1.403778   -0.161564
 82Z     0.004474   -0.000867   -0.006219    1.102964   -0.173677   -5.658251

 Eigenvectors and eigenvalues of the dynamical matrix

[...]

   6 f  =    5.105137 THz    32.076523 2PiTHz  170.289040 cm-1    21.113158 meV
             X         Y         Z           dx          dy          dz
     12.959287  8.006192  6.974863            0           0           0
      5.114293  8.058220  6.949181            0           0           0
      5.033868  3.449960  7.034419            0           0           0
     14.323523  8.757026  9.321352            0           0           0
      3.769713  4.174129  9.379706            0           0           0
      6.427291  8.765163  9.255325            0           0           0
     11.683939  4.155606  9.365108            0           0           0
      9.019850  8.759004  9.306360            0           0           0
     10.360299  1.910982  9.267027            0           0           0
      2.444231  1.908823  9.291125            0           0           0
     11.683442  8.774364  9.419190            0           0           0
     13.044225  6.471221  9.410545            0           0           0
      5.065092  1.924565  9.377236            0           0           0
      7.713534  6.475918  9.370429            0           0           0
      9.034936  4.181852  9.318588            0           0           0
      5.089975  6.473094  9.356458            0           0           0
      7.731365  1.903842  9.339046            0           0           0
      7.811152  3.383964  6.983517            0           0           0
      6.321138  1.105509  6.935115            0           0           0
      6.427482  1.119509  0.843789            0           0           0
      3.744575  4.224976  2.802947            0           0           0
      1.138714  1.226958  6.886210            0           0           0
      1.053506  1.233006  0.757137            0           0           0
      6.379696  8.732318  2.895796            0           0           0
      6.406424  4.200258  9.403253            0           0           0
      7.715193  4.989863  4.841883            0           0           0
     10.309497  6.470410  9.332860            0           0           0
     14.366899  7.249662  4.787507            0           0           0
     11.630750  5.685035  7.031742            0           0           0
      6.430876  5.769804  7.018640            0           0           0
      3.728800  2.594869  4.899318            0           0           0
     10.407142  4.909645  4.852938            0           0           0
      3.727285  5.706709  7.063670            0           0           0
     13.010760  7.954144  0.822852            0           0           0
      5.070618  7.976644  0.759159            0           0           0
      3.747252  5.772328  0.772685            0           0           0
      7.739055  1.959228  2.918920            0           0           0
      9.045754  8.788967  2.872263            0           0           0
      2.430536  3.467191  7.055597            0           0           0
      2.407877  3.445951  0.736756            0           0           0
     10.298420  1.968233  2.881385            0           0           0
     13.013514  4.988054  4.944101            0           0           0
      3.724239  1.075414  7.039711            0           0           0
      9.038451  5.765428  7.061133            0           0           0
      3.746828  1.152850  0.819592            0           0           0
      9.065133  5.724714  0.925373            0           0           0
      5.212120  3.416365  0.860857            0           0           0
     11.656252  8.704956  2.917869            0           0           0
     11.621509  7.299740  4.901783            0           0           0
     12.899801  6.497445  2.823641            0           0           0
      9.013433  4.186125  2.819185            0           0           0
      7.802718  8.005175  6.967739            0           0           0
      7.810527  7.928589  0.868881            0           0           0
     10.316566  6.548306  2.894722            0           0           0
      2.461657  0.316610  4.927330            0           0           0
      7.751538  3.525426  0.863327            0           0           0
      5.102914  1.899843  2.870690            0           0           0
      5.173495  6.405568  2.772261            0           0           0
      7.654181  0.393883  4.892331            0           0           0
      9.053095  1.144357  7.104311            0           0           0
[...]
      6.395982  2.679971  4.922922            0           0           0
     11.640522  4.178437  2.789004            0           0           0
      2.349716  1.924995  2.861968            0           0           0
     11.590753  5.721772  0.948016            0           0           0
      6.503789  5.696041  0.910522            0           0           0
      7.712777  6.454929  2.810380            0           0           0
      6.431551  4.207157  2.837884            0           0           0
     10.363559  3.378070  7.000796            0           0           0
     10.365531  3.543965  0.904545            0           0           0
     10.236619  0.466792  4.915867            0           0           0
      9.064077  7.340275  4.950593            0           0           0
      6.483441  7.273487  4.944283            0           0           0
      5.048274  0.310346  4.875506            0           0           0
     10.420620  8.810750 10.530226    -0.024675   -0.998249    0.008926
     11.722963  5.704035 10.358441     0.032665   -0.041021    0.007800

 Finite differences POTIM=  1.500000000000000E-002
  LATTYP: Found a hexagonal cell.
 ALAT       =    10.5600004196
 C/A-ratio  =     2.0833332505

  Lattice vectors:

 A1 = (   5.2800002098,  -9.1452286274,   0.0000000000)
 A2 = ( -10.5600004196,   0.0000000000,   0.0000000000)
 A3 = (   0.0000000000,   0.0000000000, -22.0000000000)

Analysis of symmetry for initial positions (statically):
 Subroutine PRICEL returns:
 Original cell was already a primitive cell.

[...]

The static configuration has the point symmetry C_1 .

Analysis of symmetry for dynamics (positions and initial velocities):
 Subroutine PRICEL returns:
 Original cell was already a primitive cell.

[...]

The dynamic configuration has the point symmetry C_1 .

Analysis of constrained symmetry for selective dynamics:
 Subroutine PRICEL returns:
 Original cell was already a primitive cell.

[...]

The constrained configuration has the point symmetry C_1 .

Analysis of structural, dynamic, and magnetic symmetry:
 Subroutine PRICEL returns:
 Original cell was already a primitive cell.

 Routine SETGRP: Setting up the symmetry group for a
 hexagonal supercell.

 Subroutine GETGRP returns: Found  1 space group operations
 (whereof  1 operations were pure point group operations)
 out of a pool of 24 trial point group operations.

The magnetic configuration has the point symmetry C_1 .

 Subroutine INISYM returns: Found  1 space group operations
 (whereof  1 operations are pure point group operations),
 and found     1 'primitive' translations

 KPOINTS: mesh auto

Automatic generation of k-mesh.
Space group operators:
 irot       det(A)        alpha          n_x          n_y          n_z        tau_x        tau_y        tau_z
    1     1.000000     0.000001     1.000000     0.000000     0.000000     0.000000     0.000000     0.000000

 Subroutine IBZKPT returns following result:

 Found      4 irreducible k-points:

 Following reciprocal coordinates:
            Coordinates               Weight
  0.000000  0.000000  0.000000      1.000000
  0.500000  0.000000  0.000000      1.000000
  0.000000  0.500000  0.000000      1.000000
  0.500000  0.500000  0.000000      1.000000

 Following cartesian coordinates:
            Coordinates               Weight
  0.000000  0.000000  0.000000      1.000000
  0.047348 -0.027337  0.000000      1.000000
  0.000000  0.054673  0.000000      1.000000
  0.047348  0.027337  0.000000      1.000000

 TETIRR: Found     12 inequivalent tetrahedra from       24
 BZINTS: Fermi energy:  2.070882;777.000000 electrons
         Band energy:-670.802292;  BLOECHL correction: -0.166935