 vasp.5.4.4.18Apr17-6-g9f103f2a35 (build Nov 30 2020 22:55:02) complex

 executed on             LinuxIFC date 2023.09.15  11:00:37

 INCAR:
 POTCAR:    PAW_PBE Co 02Aug2007
 POTCAR:    PAW_PBE Pt 04Feb2005
 POTCAR:    PAW_PBE H 15Jun2001

 POTCAR:    PAW_PBE Co 02Aug2007
   VRHFIN =Co: d8 s1

   TITEL  = PAW_PBE Co 02Aug2007
   POMASS =   58.933; ZVAL   =    9.000    mass and valenz
   ENMAX  =  267.968; ENMIN  =  200.976 eV

 POTCAR:    PAW_PBE Pt 04Feb2005
   VRHFIN =Pt: s1d9

   TITEL  = PAW_PBE Pt 04Feb2005
   POMASS =  195.080; ZVAL   =   10.000    mass and valenz
   ENMAX  =  230.283; ENMIN  =  172.712 eV

 POTCAR:    PAW_PBE H 15Jun2001
   VRHFIN =H: ultrasoft test

   TITEL  = PAW_PBE H 15Jun2001
   POMASS =    1.000; ZVAL   =    1.000    mass and valenz
   ENMAX  =  250.000; ENMIN  =  200.000 eV

 Optimization of the real space projectors (new method)

 maximal supplied QI-value         = 16.25
 optimisation between [QCUT,QGAM] = [ 11.86, 23.89] = [ 39.41,159.82] Ry
 Optimized for a Real-space Cutoff    1.33 Angstroem

   l    n(q)    QCUT    max X(q) W(low)/X(q) W(high)/X(q)  e(spline)
   2      9    11.864    65.824    0.22E-03    0.53E-03    0.26E-06
   2      9    11.864    61.429    0.22E-03    0.53E-03    0.26E-06
   0      9    11.864    56.174    0.21E-03    0.32E-04    0.15E-06
   0      9    11.864    31.263    0.19E-03    0.30E-04    0.14E-06
   1      9    11.864    19.828    0.63E-04    0.30E-03    0.16E-06
   1      9    11.864    15.139    0.49E-04    0.25E-03    0.13E-06
 Optimization of the real space projectors (new method)

[...]

   l    n(q)    QCUT    max X(q) W(low)/X(q) W(high)/X(q)  e(spline)
   2     10    11.920    66.195    0.79E-04    0.18E-03    0.24E-06
   2     10    11.920    64.643    0.81E-04    0.19E-03    0.24E-06
   0     11    11.920    95.520    0.28E-04    0.54E-04    0.18E-06
   0     11    11.920    63.403    0.27E-04    0.52E-04    0.17E-06
   1     10    11.920    19.961    0.18E-04    0.11E-03    0.23E-06
   1     10    11.920    13.289    0.25E-04    0.87E-04    0.19E-06
 Optimization of the real space projectors (new method)

 maximal supplied QI-value         = 34.20
 optimisation between [QCUT,QGAM] = [ 11.97, 23.94] = [ 40.13,160.53] Ry
 Optimized for a Real-space Cutoff    1.18 Angstroem

   l    n(q)    QCUT    max X(q) W(low)/X(q) W(high)/X(q)  e(spline)
   0      8    11.971    19.460    0.15E-03    0.31E-03    0.25E-06
   0      8    11.971    12.209    0.13E-03    0.29E-03    0.25E-06
   1      8    11.971     4.655    0.22E-03    0.24E-03    0.21E-06
  PAW_PBE Co 02Aug2007                  :
  PAW_PBE Pt 04Feb2005                  :
  PAW_PBE H 15Jun2001                   :

 POSCAR: Co   Pt   H
  positions in cartesian coordinates
 exchange correlation table for  LEXCH =        8
   RHO(1)=    0.500       N(1)  =     2000
   RHO(2)=  100.500       N(2)  =     4000

 ion  position               nearest neighbor table
   1  0.786  0.869  0.311-  55 2.41  39 2.41  20 2.42   2 2.63  56 2.63  73 2.63  65 2.63  72 2.63
                             3 2.64  29 2.64  40 2.66  57 2.66
   2  0.035  0.869  0.311-  39 2.41  49 2.42  52 2.42  77 2.62   1 2.63  67 2.63  65 2.63  56 2.64
                             3 2.64  41 2.65  33 2.65  23 2.66
   3  0.036  0.619  0.311-  39 2.42  60 2.42  12 2.42  77 2.62  73 2.63  66 2.63   2 2.64  15 2.64
                             1 2.64   9 2.64  40 2.65  41 2.66
   4  0.787  0.868  0.051-  21 2.41  62 2.41  19 2.41   5 2.64   6 2.64  42 2.64  59 2.64  58 2.64
                            30 2.64
   5  0.037  0.868  0.051-  54 2.41  35 2.41  62 2.41  58 2.64  24 2.64   4 2.64  43 2.64   6 2.64
                            34 2.64
   6  0.037  0.618  0.051-  32 2.41  54 2.41  21 2.41  43 2.64  10 2.64  18 2.64   4 2.64  42 2.64
                             5 2.64
   7  0.620  0.202  0.136-  28 2.41  30 2.41  58 2.41  55 2.50  63 2.51  64 2.51  62 2.64  11 2.64
                            37 2.64  19 2.64  45 2.64  22 2.64
   8  0.370  0.952  0.136-  16 2.41  24 2.41  59 2.41  53 2.50  26 2.51  50 2.51  38 2.64  25 2.64
                            44 2.64  19 2.64  37 2.64  35 2.64
   9  0.035  0.369  0.311-  61 2.41  12 2.42  46 2.42  68 2.62  71 2.63  33 2.63  66 2.63  40 2.63
                             3 2.64  13 2.65  15 2.65  47 2.67
  10  0.037  0.368  0.051-  38 2.41  32 2.41  31 2.41   6 2.64  48 2.64  34 2.64  18 2.64  42 2.64
                            16 2.64
  11  0.870  0.202  0.136-  48 2.41  58 2.41  34 2.41  49 2.50  61 2.50  63 2.51  35 2.64   7 2.64
                            22 2.64  38 2.64  31 2.64  62 2.64
  12  0.952  0.535  0.226-   9 2.42   3 2.42  40 2.42  31 2.50  21 2.50  32 2.50  61 2.64  46 2.64
                            20 2.64  39 2.64  51 2.65  60 2.65
  13  0.285  0.118  0.311-  26 2.41  53 2.42  46 2.42  69 2.62  71 2.63  33 2.63  74 2.63  57 2.63
                            29 2.64   9 2.65  15 2.65  23 2.66
  14  0.536  0.619  0.312-  50 2.42  51 2.42  36 2.43  47 2.59  23 2.60  27 2.62  41 2.62  40 2.63
                            57 2.63  80 2.64  75 2.71  76 2.72
  15  0.286  0.369  0.311-  60 2.42  64 2.42  46 2.42  79 2.61  74 2.63  66 2.63  29 2.63   3 2.64
                            13 2.65   9 2.65  41 2.66  27 2.66
  16  0.287  0.118  0.051-   8 2.41  37 2.41  38 2.41  18 2.64  30 2.64  59 2.64  34 2.64  10 2.64
                            24 2.64
  17  0.536  0.618  0.051-  22 2.41  25 2.41  44 2.41  43 2.64  28 2.64  24 2.64  59 2.64  48 2.64
                            42 2.64
  18  0.287  0.368  0.051-  37 2.41  45 2.41  32 2.41  16 2.64   6 2.64  43 2.64  10 2.64  28 2.64
                            30 2.64
  19  0.620  0.952  0.136-  30 2.41  59 2.41   4 2.41  55 2.50  20 2.50  53 2.51  62 2.64  21 2.64
                            37 2.64   7 2.64  25 2.64   8 2.64
  20  0.702  0.785  0.226-   1 2.42  40 2.42  57 2.42  19 2.50  25 2.50  21 2.51  53 2.64  12 2.64
                            55 2.64  39 2.64  51 2.64  50 2.64
  21  0.870  0.702  0.136-   4 2.41  42 2.41   6 2.41  39 2.50  12 2.50  20 2.51  31 2.64  19 2.64
                            62 2.64  25 2.64  32 2.64  54 2.64
  22  0.620  0.452  0.136-  17 2.41  28 2.41  48 2.41  51 2.50  63 2.50  36 2.51  31 2.64  25 2.64
                            45 2.64  11 2.64  44 2.64   7 2.64
  23  0.289  0.865  0.313-  50 2.42  52 2.43  26 2.45  41 2.59  14 2.60  57 2.62  67 2.63  69 2.63
                            75 2.64   2 2.66  13 2.66  33 2.68
  24  0.286  0.868  0.051-  44 2.41   8 2.41  35 2.41  34 2.64   5 2.64  17 2.64  43 2.64  59 2.64
                            16 2.64
  25  0.620  0.702  0.136-  59 2.41  17 2.41  42 2.41  20 2.50  51 2.50  50 2.51  22 2.64  31 2.64
                             8 2.64  44 2.64  19 2.64  21 2.64
  26  0.203  0.034  0.226-  13 2.41  33 2.41  23 2.45  35 2.50   8 2.51  38 2.51  52 2.62  50 2.63
                            49 2.63  53 2.64  46 2.66  61 2.67
  27  0.536  0.370  0.312-  36 2.41  63 2.42  64 2.43  47 2.59  14 2.62  78 2.63  41 2.63  79 2.64
                            56 2.65  15 2.66  29 2.66  76 2.71
  28  0.537  0.368  0.051-   7 2.41  22 2.41  45 2.41  30 2.64  58 2.64  17 2.64  18 2.64  48 2.64
                            43 2.64
  29  0.535  0.119  0.311-  64 2.41  53 2.42  55 2.42  78 2.62  72 2.63  74 2.63  15 2.63  56 2.64
                            13 2.64   1 2.64  57 2.65  27 2.66
  30  0.537  0.118  0.051-  19 2.41   7 2.41  37 2.41  28 2.64  16 2.64  59 2.64  58 2.64  18 2.64
                             4 2.64
  31  0.870  0.452  0.136-  42 2.41  48 2.41  10 2.41  12 2.50  61 2.50  51 2.51  22 2.64  21 2.64
                            25 2.64  11 2.64  32 2.64  38 2.64
  32  0.120  0.452  0.136-   6 2.41  10 2.41  18 2.41  46 2.50  12 2.50  60 2.51  38 2.64  54 2.64
                            21 2.64  37 2.64  45 2.64  31 2.64
  33  0.036  0.119  0.311-  61 2.41  26 2.41  49 2.42  67 2.62  70 2.63  71 2.63   9 2.63  13 2.63
                            56 2.65   2 2.65  23 2.68  47 2.68
  34  0.037  0.118  0.051-  35 2.41  38 2.41  11 2.41  24 2.64  10 2.64  48 2.64  16 2.64  58 2.64
                             5 2.64
  35  0.120  0.952  0.136-  34 2.41   5 2.41  24 2.41  26 2.50  49 2.50  52 2.50  11 2.64  38 2.64
                            54 2.64  44 2.64   8 2.64  62 2.64
  36  0.453  0.535  0.226-  27 2.41  41 2.42  14 2.43  44 2.50  45 2.50  22 2.51  50 2.63  51 2.63
                            64 2.63  60 2.63  63 2.64  52 2.64
  37  0.370  0.202  0.136-  18 2.41  16 2.41  30 2.41  53 2.50  46 2.50  64 2.51   7 2.64  19 2.64
                             8 2.64  45 2.64  32 2.64  38 2.64
  38  0.120  0.202  0.136-  10 2.41  34 2.41  16 2.41  46 2.50  26 2.51  61 2.52   8 2.64  35 2.64
                            32 2.64  11 2.64  37 2.64  31 2.64
  39  0.953  0.785  0.226-   2 2.41   1 2.41   3 2.42  21 2.50  62 2.50  54 2.50  12 2.64  60 2.64
                            20 2.64  52 2.64  55 2.64  49 2.65
  40  0.785  0.618  0.312-  51 2.41  20 2.42  12 2.42  80 2.62  47 2.62  68 2.63  14 2.63  73 2.63
                             9 2.63  57 2.65   3 2.65   1 2.66
  41  0.287  0.620  0.312-  36 2.42  52 2.42  60 2.43  23 2.59  14 2.62  27 2.63  79 2.63  77 2.63
                             2 2.65  15 2.66   3 2.66  75 2.69
  42  0.787  0.618  0.051-  31 2.41  21 2.41  25 2.41  48 2.64  10 2.64   4 2.64   6 2.64  59 2.64
                            17 2.64
  43  0.287  0.618  0.051-  45 2.41  44 2.41  54 2.41   6 2.64  18 2.64  17 2.64   5 2.64  24 2.64
                            28 2.64
  44  0.370  0.702  0.136-  24 2.41  43 2.41  17 2.41  50 2.50  36 2.50  52 2.51  54 2.64  25 2.64
                            45 2.64   8 2.64  35 2.64  22 2.64
  45  0.370  0.452  0.136-  43 2.41  18 2.41  28 2.41  64 2.50  60 2.50  36 2.50  22 2.64  44 2.64
                            37 2.64   7 2.64  54 2.64  32 2.64
  46  0.202  0.285  0.226-  15 2.42  13 2.42   9 2.42  32 2.50  38 2.50  37 2.50  12 2.64  53 2.64
                            60 2.65  64 2.65  26 2.66  61 2.66
  47  0.780  0.372  0.313-  51 2.42  63 2.43  61 2.46  27 2.59  14 2.59  70 2.62  40 2.62  68 2.63
                            56 2.65  76 2.66   9 2.67  33 2.68
  48  0.787  0.368  0.051-  11 2.41  31 2.41  22 2.41  10 2.64  42 2.64  34 2.64  58 2.64  28 2.64
                            17 2.64
  49  0.953  0.036  0.226-   2 2.42  33 2.42  56 2.42  11 2.50  35 2.50  62 2.50  26 2.63  61 2.63
                            63 2.64  52 2.64  39 2.65  55 2.65
  50  0.452  0.784  0.226-  57 2.41  23 2.42  14 2.42  44 2.50   8 2.51  25 2.51  36 2.63  51 2.63
                            52 2.63  26 2.63  20 2.64  53 2.65
  51  0.701  0.535  0.226-  40 2.41  47 2.42  14 2.42  22 2.50  25 2.50  31 2.51  36 2.63  61 2.63
                            50 2.63  63 2.63  20 2.64  12 2.65
  52  0.203  0.785  0.226-  41 2.42   2 2.42  23 2.43  35 2.50  44 2.51  54 2.51  26 2.62  50 2.63
                            60 2.64  36 2.64  49 2.64  39 2.64
  53  0.452  0.035  0.226-  29 2.42  57 2.42  13 2.42   8 2.50  37 2.50  19 2.51  26 2.64  20 2.64
                            55 2.64  46 2.64  50 2.65  64 2.65
[...]
      1.011385  1.080376  1.128547            0           0           0
      6.287836  8.703604  2.991992            0           0           0
      7.606089  4.897004  4.978848            0           0           0
      4.969213  1.843763  2.992524            0           0           0
      2.328654  1.843751  2.992483            0           0           0
     14.204564  7.180513  4.972826            0           0           0
     11.555616  5.652898  6.853244            0           0           0
      6.303405  5.666291  6.861526            0           0           0
     11.569967  5.652273  1.127480            0           0           0
      6.288786  5.652014  1.128720            0           0           0
      7.607949  6.417220  2.991241            0           0           0
      6.289230  4.130398  2.992423            0           0           0
      3.644595  2.609966  4.972724            0           0           0
     10.206182  3.404018  6.886468            0           0           0
     10.251112  3.366005  1.127934            0           0           0
     10.248176  0.326049  4.973771            0           0           0
      8.919424  7.174049  4.980211            0           0           0
     10.234788  4.896543  4.980243            0           0           0
      6.288860  7.182854  4.978519            0           0           0
      4.961994  0.322172  4.974002            0           0           0
      4.968348  6.417007  2.992234            0           0           0
      7.601947  0.325084  4.973492            0           0           0
      8.919885  1.083312  6.848231            0           0           0
     10.232634  7.944492  6.853602            0           0           0
      8.931018  1.079620  1.127737            0           0           0
     10.250101  7.939278  1.127458            0           0           0
      4.973268  4.897892  4.978612            0           0           0
[...]
     11.582150  4.132221  9.002476            0           0           0
      8.925971  8.731501  9.003538            0           0           0
     10.246278  1.841789  8.990333            0           0           0
      2.321802  1.853025  8.992545            0           0           0
     11.566427  8.715150  8.990396            0           0           0
     12.888201  6.426719  8.990450            0           0           0
      4.956787  1.851908  8.993233            0           0           0
      7.587949  6.453636  9.090239            0           0           0
      8.937097  4.119396  9.111916            0           0           0
      4.949767  6.431553  8.985746            0           0           0
      7.602010  1.838202  8.985317            0           0           0
      6.252982  4.122919  8.993506            0           0           0
     10.273488  6.444100  8.993999            0           0           0
      7.872096  5.042489 10.477195    -0.589790   -0.355767   -0.184707
      8.708816  5.506698 10.462379    -0.602048   -0.318378    0.166238

   4 f/i=   12.358488 THz    77.650672 2PiTHz  412.234784 cm-1    51.110618 meV
             X         Y         Z           dx          dy          dz
     12.888844  7.949174  6.845596            0           0           0
      4.957270  7.946095  6.847992            0           0           0
      3.644581  5.657713  6.848936            0           0           0
     12.890693  7.937732  1.127411            0           0           0
      4.969706  7.939116  1.128531            0           0           0
      3.649957  5.651776  1.129190            0           0           0
      7.608781  1.843362  2.991653            0           0           0
      8.928348  8.703137  2.991182            0           0           0
      2.314679  3.372003  6.850686            0           0           0
      2.330136  3.366551  1.129481            0           0           0
     10.248209  1.844221  2.991308            0           0           0
     12.882364  4.894841  4.974098            0           0           0
      3.638221  1.081920  6.851269            0           0           0
      8.922163  5.658786  6.868774            0           0           0
      4.962984  3.372527  6.851054            0           0           0
      3.651346  1.080639  1.128571            0           0           0
      8.928223  5.652563  1.127107            0           0           0
      4.969471  3.366256  1.129791            0           0           0
     11.568373  8.702678  2.990806            0           0           0
     11.562089  7.181485  4.976758            0           0           0
     12.887726  6.416690  2.991438            0           0           0
      8.928769  4.130875  2.990941            0           0           0
      7.611883  7.906783  6.881760            0           0           0
      7.608717  7.939412  1.128257            0           0           0
     10.247638  6.416886  2.990068            0           0           0
      2.322545  0.307110  4.981815            0           0           0
      7.619978  3.387523  6.862713            0           0           0
      7.610141  3.365160  1.128439            0           0           0
      6.281218  1.091119  6.849217            0           0           0
      6.290737  1.079887  1.128229            0           0           0
     11.567580  4.131448  2.992071            0           0           0
      3.648521  4.130274  2.993297            0           0           0
      1.008715  1.091191  6.849527            0           0           0
      1.011385  1.080376  1.128547            0           0           0
      6.287836  8.703604  2.991992            0           0           0
      7.606089  4.897004  4.978848            0           0           0
      4.969213  1.843763  2.992524            0           0           0
      2.328654  1.843751  2.992483            0           0           0
     14.204564  7.180513  4.972826            0           0           0
     11.555616  5.652898  6.853244            0           0           0
      6.303405  5.666291  6.861526            0           0           0
     11.569967  5.652273  1.127480            0           0           0
      6.288786  5.652014  1.128720            0           0           0
      7.607949  6.417220  2.991241            0           0           0
      6.289230  4.130398  2.992423            0           0           0
      3.644595  2.609966  4.972724            0           0           0
     10.206182  3.404018  6.886468            0           0           0
     10.251112  3.366005  1.127934            0           0           0
     10.248176  0.326049  4.973771            0           0           0
      8.919424  7.174049  4.980211            0           0           0
     10.234788  4.896543  4.980243            0           0           0
      6.288860  7.182854  4.978519            0           0           0
      4.961994  0.322172  4.974002            0           0           0
      4.968348  6.417007  2.992234            0           0           0
      7.601947  0.325084  4.973492            0           0           0
      8.919885  1.083312  6.848231            0           0           0
     10.232634  7.944492  6.853602            0           0           0
      8.931018  1.079620  1.127737            0           0           0
     10.250101  7.939278  1.127458            0           0           0
      4.973268  4.897892  4.978612            0           0           0
[...]
     11.582150  4.132221  9.002476            0           0           0
      8.925971  8.731501  9.003538            0           0           0
     10.246278  1.841789  8.990333            0           0           0
      2.321802  1.853025  8.992545            0           0           0
     11.566427  8.715150  8.990396            0           0           0
     12.888201  6.426719  8.990450            0           0           0
      4.956787  1.851908  8.993233            0           0           0
      7.587949  6.453636  9.090239            0           0           0
      8.937097  4.119396  9.111916            0           0           0
      4.949767  6.431553  8.985746            0           0           0
      7.602010  1.838202  8.985317            0           0           0
      6.252982  4.122919  8.993506            0           0           0
     10.273488  6.444100  8.993999            0           0           0
      7.872096  5.042489 10.477195     0.339918   -0.594414    0.050612
      8.708816  5.506698 10.462379    -0.349747    0.634393   -0.061550

[...]

   6 f/i=   21.152081 THz   132.902446 2PiTHz  705.557463 cm-1    87.478008 meV
             X         Y         Z           dx          dy          dz
     12.888844  7.949174  6.845596            0           0           0
      4.957270  7.946095  6.847992            0           0           0
      3.644581  5.657713  6.848936            0           0           0
     12.890693  7.937732  1.127411            0           0           0
      4.969706  7.939116  1.128531            0           0           0
      3.649957  5.651776  1.129190            0           0           0
      7.608781  1.843362  2.991653            0           0           0
      8.928348  8.703137  2.991182            0           0           0
      2.314679  3.372003  6.850686            0           0           0
      2.330136  3.366551  1.129481            0           0           0
     10.248209  1.844221  2.991308            0           0           0
     12.882364  4.894841  4.974098            0           0           0
      3.638221  1.081920  6.851269            0           0           0
      8.922163  5.658786  6.868774            0           0           0
      4.962984  3.372527  6.851054            0           0           0
      3.651346  1.080639  1.128571            0           0           0
      8.928223  5.652563  1.127107            0           0           0
      4.969471  3.366256  1.129791            0           0           0
     11.568373  8.702678  2.990806            0           0           0
     11.562089  7.181485  4.976758            0           0           0
     12.887726  6.416690  2.991438            0           0           0
      8.928769  4.130875  2.990941            0           0           0
      7.611883  7.906783  6.881760            0           0           0
      7.608717  7.939412  1.128257            0           0           0
     10.247638  6.416886  2.990068            0           0           0
      2.322545  0.307110  4.981815            0           0           0
      7.619978  3.387523  6.862713            0           0           0
      7.610141  3.365160  1.128439            0           0           0
      6.281218  1.091119  6.849217            0           0           0
      6.290737  1.079887  1.128229            0           0           0
     11.567580  4.131448  2.992071            0           0           0
      3.648521  4.130274  2.993297            0           0           0
      1.008715  1.091191  6.849527            0           0           0
      1.011385  1.080376  1.128547            0           0           0
      6.287836  8.703604  2.991992            0           0           0
      7.606089  4.897004  4.978848            0           0           0
      4.969213  1.843763  2.992524            0           0           0
      2.328654  1.843751  2.992483            0           0           0
     14.204564  7.180513  4.972826            0           0           0
     11.555616  5.652898  6.853244            0           0           0
      6.303405  5.666291  6.861526            0           0           0
     11.569967  5.652273  1.127480            0           0           0
      6.288786  5.652014  1.128720            0           0           0
      7.607949  6.417220  2.991241            0           0           0
      6.289230  4.130398  2.992423            0           0           0
      3.644595  2.609966  4.972724            0           0           0
     10.206182  3.404018  6.886468            0           0           0
     10.251112  3.366005  1.127934            0           0           0
     10.248176  0.326049  4.973771            0           0           0
      8.919424  7.174049  4.980211            0           0           0
     10.234788  4.896543  4.980243            0           0           0
      6.288860  7.182854  4.978519            0           0           0
      4.961994  0.322172  4.974002            0           0           0
      4.968348  6.417007  2.992234            0           0           0
      7.601947  0.325084  4.973492            0           0           0
      8.919885  1.083312  6.848231            0           0           0
     10.232634  7.944492  6.853602            0           0           0
      8.931018  1.079620  1.127737            0           0           0
     10.250101  7.939278  1.127458            0           0           0
      4.973268  4.897892  4.978612            0           0           0
[...]
     11.582150  4.132221  9.002476            0           0           0
      8.925971  8.731501  9.003538            0           0           0
     10.246278  1.841789  8.990333            0           0           0
      2.321802  1.853025  8.992545            0           0           0
     11.566427  8.715150  8.990396            0           0           0
     12.888201  6.426719  8.990450            0           0           0
      4.956787  1.851908  8.993233            0           0           0
      7.587949  6.453636  9.090239            0           0           0
      8.937097  4.119396  9.111916            0           0           0
      4.949767  6.431553  8.985746            0           0           0
      7.602010  1.838202  8.985317            0           0           0
      6.252982  4.122919  8.993506            0           0           0
     10.273488  6.444100  8.993999            0           0           0
      7.872096  5.042489 10.477195    -0.218795   -0.131329   -0.647561
      8.708816  5.506698 10.462379     0.245411    0.116659   -0.664613

 Finite differences POTIM=  1.500000000000000E-002
  LATTYP: Found a hexagonal cell.
 ALAT       =    10.5600004196
 C/A-ratio  =     2.0833332505

  Lattice vectors:

 A1 = (   5.2800002098,  -9.1452286274,   0.0000000000)
 A2 = ( -10.5600004196,   0.0000000000,   0.0000000000)
 A3 = (   0.0000000000,   0.0000000000, -22.0000000000)

Analysis of symmetry for initial positions (statically):
 Subroutine PRICEL returns:
 Original cell was already a primitive cell.

[...]

The static configuration has the point symmetry C_1 .

Analysis of symmetry for dynamics (positions and initial velocities):
 Subroutine PRICEL returns:
 Original cell was already a primitive cell.

[...]

The dynamic configuration has the point symmetry C_1 .

Analysis of constrained symmetry for selective dynamics:
 Subroutine PRICEL returns:
 Original cell was already a primitive cell.

[...]

The constrained configuration has the point symmetry C_1 .

Analysis of structural, dynamic, and magnetic symmetry:
 Subroutine PRICEL returns:
 Original cell was already a primitive cell.

 Routine SETGRP: Setting up the symmetry group for a
 hexagonal supercell.

 Subroutine GETGRP returns: Found  1 space group operations
 (whereof  1 operations were pure point group operations)
 out of a pool of 24 trial point group operations.

The magnetic configuration has the point symmetry C_1 .

 Subroutine INISYM returns: Found  1 space group operations
 (whereof  1 operations are pure point group operations),
 and found     1 'primitive' translations

 KPOINTS: mesh auto

Automatic generation of k-mesh.
Space group operators:
 irot       det(A)        alpha          n_x          n_y          n_z        tau_x        tau_y        tau_z
    1     1.000000     0.000001     1.000000     0.000000     0.000000     0.000000     0.000000     0.000000

 Subroutine IBZKPT returns following result:

 Found      4 irreducible k-points:

 Following reciprocal coordinates:
            Coordinates               Weight
  0.000000  0.000000  0.000000      1.000000
  0.500000  0.000000  0.000000      1.000000
  0.000000  0.500000  0.000000      1.000000
  0.500000  0.500000  0.000000      1.000000

 Following cartesian coordinates:
            Coordinates               Weight
  0.000000  0.000000  0.000000      1.000000
  0.047348 -0.027337  0.000000      1.000000
  0.000000  0.054673  0.000000      1.000000
  0.047348  0.027337  0.000000      1.000000

 TETIRR: Found     12 inequivalent tetrahedra from       24
 BZINTS: Fermi energy:  2.063116;738.000000 electrons
         Band energy:-468.754933;  BLOECHL correction: -0.351800