 vasp.5.4.4.18Apr17-6-g9f103f2a35 (build Nov 30 2020 22:55:02) complex

 executed on             LinuxIFC date 2023.08.07  09:08:19

 INCAR:
 POTCAR:    PAW_PBE Pt 04Feb2005
 POTCAR:    PAW_PBE H 15Jun2001
 POTCAR:    PAW_PBE Pt 04Feb2005
   VRHFIN =Pt: s1d9

   TITEL  = PAW_PBE Pt 04Feb2005
   POMASS =  195.080; ZVAL   =   10.000    mass and valenz
   ENMAX  =  230.283; ENMIN  =  172.712 eV

 POTCAR:    PAW_PBE H 15Jun2001
   VRHFIN =H: ultrasoft test

   TITEL  = PAW_PBE H 15Jun2001
   POMASS =    1.000; ZVAL   =    1.000    mass and valenz
   ENMAX  =  250.000; ENMIN  =  200.000 eV

 Optimization of the real space projectors (new method)

 maximal supplied QI-value         = 14.36
 optimisation between [QCUT,QGAM] = [ 11.92, 23.98] = [ 39.79,161.09] Ry
 Optimized for a Real-space Cutoff    1.49 Angstroem

   l    n(q)    QCUT    max X(q) W(low)/X(q) W(high)/X(q)  e(spline)
   2     10    11.920    66.195    0.79E-04    0.18E-03    0.24E-06
   2     10    11.920    64.643    0.81E-04    0.19E-03    0.24E-06
   0     11    11.920    95.520    0.28E-04    0.54E-04    0.18E-06
   0     11    11.920    63.403    0.27E-04    0.52E-04    0.17E-06
   1     10    11.920    19.961    0.18E-04    0.11E-03    0.23E-06
   1     10    11.920    13.289    0.25E-04    0.87E-04    0.19E-06
 Optimization of the real space projectors (new method)

 maximal supplied QI-value         = 34.20
 optimisation between [QCUT,QGAM] = [ 11.97, 23.94] = [ 40.13,160.53] Ry
 Optimized for a Real-space Cutoff    1.18 Angstroem

   l    n(q)    QCUT    max X(q) W(low)/X(q) W(high)/X(q)  e(spline)
   0      8    11.971    19.460    0.15E-03    0.31E-03    0.25E-06
   0      8    11.971    12.209    0.13E-03    0.29E-03    0.25E-06
   1      8    11.971     4.655    0.22E-03    0.24E-03    0.21E-06
  PAW_PBE Pt 04Feb2005                  :
  PAW_PBE H 15Jun2001                   :

 POSCAR: Pt111\(1\1\1)\(2)
  positions in cartesian coordinates
 exchange correlation table for  LEXCH =        8
   RHO(1)=    0.500       N(1)  =     2000
   RHO(2)=  100.500       N(2)  =     4000

 ion  position               nearest neighbor table
   1  1.000  0.000  0.056-   5 2.64   9 2.64  13 2.64  29 2.64  57 2.64  37 2.64  42 2.87  14 2.87
                            54 2.87
   2  0.333  0.167  0.178-  30 2.64  26 2.64  38 2.64  42 2.64  14 2.64   6 2.64  11 2.83   7 2.86
                            15 2.87   9 2.87  21 2.87  13 2.87
   3  0.168  0.334  0.299-  15 2.62  43 2.62   7 2.63  39 2.63  27 2.65  31 2.65   8 2.81   6 2.86
                            10 2.86  14 2.87  48 2.97  12 2.97
   4  1.000  0.000  0.419-  12 2.62  60 2.64  40 2.64  32 2.64  16 2.64   8 2.64   7 2.86  63 2.87
                            27 2.88
   5  1.000  0.250  0.056-   1 2.64  45 2.64  33 2.64   9 2.64  29 2.64  25 2.64  14 2.87  10 2.87
                            18 2.87
   6  0.333  0.417  0.178-  26 2.64  62 2.64  10 2.64  34 2.64  14 2.64   2 2.64   3 2.86  15 2.86
                            43 2.86  45 2.87  49 2.87   9 2.87
   7  0.167  0.085  0.299-  15 2.63   3 2.63  27 2.64  11 2.64  63 2.65  35 2.65   2 2.86  14 2.86
                            16 2.86   4 2.86  42 2.87  12 2.95
   8  0.999  0.250  0.416-  28 2.63  32 2.63  36 2.64   4 2.64  48 2.66  12 2.66   3 2.81  31 2.82
                            27 2.83
   9  0.250  0.250  0.056-  21 2.64  13 2.64   1 2.64  49 2.64  45 2.64   5 2.64   2 2.87  14 2.87
                             6 2.87
  10  0.083  0.417  0.178-  34 2.64   6 2.64  46 2.64  14 2.64  18 2.64  22 2.64  31 2.83  39 2.86
                             3 2.86  33 2.87  45 2.87   5 2.87
  11  0.417  0.083  0.297-  47 2.63  35 2.64   7 2.64  23 2.64  19 2.65  15 2.65  24 2.83  38 2.83
                             2 2.83  30 2.83  16 2.88  20 2.91
  12  0.249  0.247  0.426-  65 1.85  16 2.62   4 2.62  24 2.66   8 2.66  52 2.69  48 2.69   7 2.95
                             3 2.97  15 2.97
  13  0.250  0.000  0.056-  21 2.64   9 2.64  17 2.64   1 2.64  37 2.64  41 2.64  38 2.87   2 2.87
                            42 2.87
  14  0.083  0.167  0.178-  42 2.64  54 2.64   6 2.64   2 2.64  10 2.64  18 2.64  27 2.83   7 2.86
                             3 2.87   5 2.87   1 2.87   9 2.87
  15  0.416  0.334  0.299-   3 2.62  43 2.62   7 2.63  55 2.63  11 2.65  19 2.65  24 2.81   6 2.86
                            26 2.86   2 2.87  52 2.97  12 2.97
  16  0.250  0.000  0.419-  12 2.62  44 2.64  40 2.64  20 2.64   4 2.64  24 2.64   7 2.86  35 2.87
                            11 2.88
  17  0.500  0.000  0.056-  29 2.64  25 2.64  13 2.64  21 2.64  41 2.64  53 2.64  58 2.87  30 2.87
                            38 2.87
  18  0.833  0.167  0.178-  54 2.64  58 2.64  22 2.64  10 2.64  30 2.64  14 2.64  27 2.83  31 2.83
                            23 2.86  25 2.87  29 2.87   5 2.87
  19  0.667  0.334  0.297-  31 2.63  59 2.64  55 2.64  23 2.64  11 2.65  15 2.65  24 2.82  22 2.83
                            26 2.83  30 2.83  64 2.88  28 2.91
  20  0.500  0.000  0.421-  56 2.63  24 2.63  16 2.64  44 2.64  32 2.64  28 2.64  23 2.88  11 2.91
                            47 2.91
  21  0.500  0.250  0.056-  25 2.64  61 2.64   9 2.64  13 2.64  49 2.64  17 2.64  30 2.87   2 2.87
                            26 2.87
  22  0.833  0.417  0.178-  50 2.64  26 2.64  30 2.64  18 2.64  46 2.64  10 2.64  19 2.83  31 2.83
                            59 2.84  61 2.87  25 2.87  33 2.87
  23  0.667  0.083  0.299-  31 2.64  19 2.64  51 2.64  47 2.64  27 2.64  11 2.64  18 2.86  30 2.86
                            58 2.86  32 2.88  20 2.88  28 2.88
  24  0.501  0.250  0.416-  28 2.63  20 2.63  64 2.64  16 2.64  52 2.66  12 2.66  15 2.81  19 2.82
                            11 2.83
  25  0.750  0.250  0.056-  17 2.64  21 2.64  29 2.64  61 2.64  33 2.64   5 2.64  18 2.87  22 2.87
                            30 2.87
  26  0.583  0.417  0.178-   6 2.64   2 2.64  22 2.64  30 2.64  62 2.64  50 2.64  19 2.83  55 2.86
                            15 2.86  49 2.87  61 2.87  21 2.87
  27  0.917  0.083  0.297-  51 2.63  63 2.64   7 2.64  23 2.64  31 2.65   3 2.65   8 2.83  54 2.83
                            14 2.83  18 2.83   4 2.88  32 2.91
  28  0.750  0.251  0.421-  24 2.63   8 2.63  64 2.64  36 2.64  20 2.64  32 2.64  23 2.88  19 2.91
                            31 2.91
  29  0.750  0.000  0.056-  17 2.64  25 2.64   5 2.64  53 2.64   1 2.64  57 2.64  54 2.87  18 2.87
                            58 2.87
  30  0.583  0.167  0.178-   2 2.64  38 2.64  58 2.64  26 2.64  22 2.64  18 2.64  11 2.83  19 2.83
                            23 2.86  21 2.87  17 2.87  25 2.87
  31  0.917  0.334  0.297-  19 2.63  59 2.64  39 2.64  23 2.64  27 2.65   3 2.65   8 2.82  22 2.83
                            10 2.83  18 2.83  36 2.88  28 2.91
  32  0.750  0.000  0.421-  56 2.63   8 2.63   4 2.64  60 2.64  20 2.64  28 2.64  23 2.88  27 2.91
                            51 2.91
  33  1.000  0.500  0.056-  37 2.64  41 2.64   5 2.64  45 2.64  25 2.64  61 2.64  10 2.87  46 2.87
                            22 2.87
  34  0.333  0.667  0.178-  62 2.64  10 2.64  58 2.64  46 2.64   6 2.64  38 2.64  47 2.83  39 2.86
                            43 2.86  41 2.87  45 2.87  53 2.87
  35  0.167  0.833  0.297-  59 2.64  63 2.64  47 2.64  11 2.64   7 2.65  39 2.65  42 2.84  38 2.84
                            46 2.84  40 2.86  44 2.87  16 2.87
  36  0.000  0.500  0.419-  48 2.62  64 2.64  40 2.64  44 2.64  28 2.64   8 2.64  39 2.86  59 2.87
                            31 2.88
  37  1.000  0.750  0.056-  33 2.64  41 2.64  61 2.64  57 2.64  13 2.64   1 2.64  46 2.87  50 2.87
                            42 2.87
  38  0.333  0.917  0.178-  58 2.64  30 2.64   2 2.64  42 2.64  34 2.64  46 2.64  47 2.83  11 2.83
                            35 2.84  13 2.87  17 2.87  41 2.87
  39  0.167  0.583  0.299-  43 2.63   3 2.63  31 2.64  47 2.64  59 2.65  35 2.65  34 2.86  10 2.86
                            36 2.86  44 2.86  46 2.87  48 2.95
  40  0.000  0.750  0.418-  36 2.64  64 2.64  16 2.64   4 2.64  44 2.64  60 2.64  63 2.86  35 2.86
                            59 2.86
  41  0.250  0.750  0.056-  45 2.64  33 2.64  37 2.64  53 2.64  17 2.64  13 2.64  34 2.87  46 2.87
                            38 2.87
  42  0.083  0.917  0.178-  14 2.64   2 2.64  38 2.64  46 2.64  50 2.64  54 2.64  63 2.84  35 2.84
                             7 2.87   1 2.87  13 2.87  37 2.87
  43  0.416  0.582  0.299-  15 2.62   3 2.62  39 2.63  55 2.63  51 2.65  47 2.65  56 2.81   6 2.86
                            62 2.86  34 2.86  52 2.97  48 2.97
  44  0.250  0.750  0.419-  48 2.62  16 2.64  40 2.64  36 2.64  20 2.64  56 2.64  39 2.86  35 2.87
                            47 2.88
  45  0.250  0.500  0.056-  41 2.64  53 2.64   5 2.64   9 2.64  49 2.64  33 2.64   6 2.87  10 2.87
                            34 2.87
  46  0.083  0.667  0.178-  34 2.64  50 2.64  10 2.64  42 2.64  22 2.64  38 2.64  59 2.84  35 2.84
                            39 2.87  37 2.87  33 2.87  41 2.87
  47  0.417  0.834  0.297-  11 2.63  35 2.64  23 2.64  39 2.64  51 2.65  43 2.65  56 2.83  38 2.83
                            58 2.83  34 2.83  44 2.88  20 2.91
  48  0.249  0.502  0.426-  65 1.86  44 2.62  36 2.62   8 2.66  56 2.66  52 2.68  12 2.69  39 2.95
                            43 2.97   3 2.97
  49  0.500  0.500  0.056-  61 2.64  53 2.64  57 2.64  21 2.64   9 2.64  45 2.64  26 2.87   6 2.87
                            62 2.87
  50  0.833  0.667  0.178-  22 2.64  46 2.64  26 2.64  42 2.64  54 2.64  62 2.64  59 2.84  63 2.84
                            55 2.87  57 2.87  61 2.87  37 2.87
  51  0.667  0.834  0.297-  27 2.63  63 2.64  23 2.64  55 2.64  47 2.65  43 2.65  56 2.83  54 2.83
                            58 2.83  62 2.83  60 2.88  32 2.91
  52  0.503  0.502  0.426-  65 1.86  60 2.62  64 2.62  24 2.66  56 2.66  48 2.68  12 2.69  55 2.95
                            43 2.97  15 2.97
  53  0.500  0.750  0.056-  49 2.64  57 2.64  45 2.64  41 2.64  29 2.64  17 2.64  62 2.87  34 2.87
                            58 2.87
  54  0.833  0.917  0.178-  18 2.64  14 2.64  50 2.64  58 2.64  42 2.64  62 2.64  51 2.83  27 2.83
                            63 2.84  29 2.87   1 2.87  57 2.87
  55  0.665  0.583  0.299-  43 2.63  15 2.63  19 2.64  51 2.64  59 2.65  63 2.65  62 2.86  26 2.86
                            64 2.86  60 2.86  50 2.87  52 2.95
  56  0.501  0.751  0.416-  32 2.63  20 2.63  60 2.64  44 2.64  52 2.66  48 2.66  43 2.81  47 2.83
                            51 2.83
  57  0.750  0.750  0.056-  61 2.64  49 2.64  53 2.64  37 2.64   1 2.64  29 2.64  50 2.87  62 2.87
                            54 2.87
  58  0.583  0.917  0.178-  38 2.64  30 2.64  18 2.64  34 2.64  62 2.64  54 2.64  47 2.83  51 2.83
                            23 2.86  17 2.87  29 2.87  53 2.87
  59  0.917  0.584  0.297-  35 2.64  63 2.64  31 2.64  19 2.64  55 2.65  39 2.65  46 2.84  50 2.84
                            22 2.84  40 2.86  36 2.87  64 2.87
  60  0.750  0.750  0.419-  52 2.62   4 2.64  40 2.64  64 2.64  32 2.64  56 2.64  55 2.86  63 2.87
                            51 2.88
  61  0.750  0.500  0.056-  49 2.64  57 2.64  21 2.64  25 2.64  37 2.64  33 2.64  22 2.87  26 2.87
[...]

  FORCE on cell =-STRESS in cart. coord.  units (eV):
  Direction    XX          YY          ZZ          XY          YZ          ZX
  Alpha Z  2019.82281  2019.82281  2019.82281
  Ewald  162449.93615162449.31732************     0.01543    -0.55992    -0.01953
  Hartree173343.63909173343.49045************     0.00310    -0.14855    -0.00404
  E(xc)   -2858.94791 -2858.95935 -2884.66206     0.00018    -0.00762    -0.00023
  Local  ************************357912.33468    -0.01334     0.49884     0.01591
  n-local   575.20218   575.10070   314.50187     0.00165    -0.00575    -0.00082
  augment  3253.03475  3253.17414  3533.97567    -0.00280     0.08027     0.00289
  Kinetic  9157.28980  9157.56860  9752.93552    -0.00557     0.15937     0.00635
  Fock        0.00000     0.00000     0.00000     0.00000     0.00000     0.00000
  vdW       -53.59303   -53.57362   -28.82131    -0.00026    -0.00328    -0.00008
  Total      81.20496    81.30167    -0.75667    -0.00161     0.01336     0.00044
  in kB      67.36039    67.44062    -0.62766    -0.00133     0.01108     0.00037

 VOLUME and BASIS-vectors are now :
  energy-cutoff  :      550.00
  volume of cell :     1931.47
      direct lattice vectors                 reciprocal lattice vectors
    10.560000420  0.000000000  0.000000000     0.094696966  0.054673319  0.000000000
    -5.280000210  9.145228627  0.000000000     0.000000000  0.109346638  0.000000000
     0.000000000  0.000000000 20.000000000     0.000000000  0.000000000  0.050000000

  length of vectors
    10.560000420 10.560000420 20.000000000     0.109346638  0.109346638  0.050000000

 FORCES acting on ions
    electron-ion (+dipol)            ewald-force                    non-local-force                 convergence-correction
   -.408E+00 -.237E+01 0.231E+04   0.388E+00 0.237E+01 -.231E+04   0.297E-02 0.736E-02 -.133E+00   0.167E-01 -.276E-01 0.411E-01
   0.275E+01 -.541E+01 0.780E+03   -.282E+01 0.545E+01 -.780E+03   0.662E-01 0.115E-01 -.296E+00   -.184E-01 -.238E-01 0.583E-01
   -.511E+01 -.279E+01 -.800E+03   0.521E+01 0.285E+01 0.800E+03   -.955E-01 -.536E-01 0.332E+00   0.110E-01 0.638E-02 -.346E-01
   0.512E+01 0.758E+01 -.230E+04   -.506E+01 -.747E+01 0.230E+04   -.808E-01 -.879E-01 0.726E-01   0.180E-01 -.152E-01 -.285E-01
   -.282E+01 -.152E+01 0.231E+04   0.287E+01 0.155E+01 -.231E+04   -.112E-01 -.675E-02 -.246E-01   -.160E-02 0.618E-03 0.276E-01
   0.769E-02 0.931E-03 0.753E+03   -.822E-02 -.718E-03 -.752E+03   -.713E-04 0.262E-02 -.825E+00   0.462E-03 -.198E-02 0.422E-01
   0.147E-01 -.311E+01 -.783E+03   -.152E-01 0.344E+01 0.783E+03   -.711E-04 -.259E+00 0.297E+00   0.373E-03 -.243E-01 -.799E-02
   0.770E+01 0.481E+01 -.226E+04   -.777E+01 -.485E+01 0.226E+04   0.459E-01 0.129E-01 0.436E-01   0.159E-01 0.105E-01 -.289E-01
   0.890E-03 -.558E+01 0.230E+04   -.126E-02 0.566E+01 -.230E+04   -.221E-04 0.261E-01 0.150E-03   0.354E-03 -.159E-01 0.365E-01
   -.610E+01 0.403E+00 0.780E+03   0.618E+01 -.377E+00 -.780E+03   -.227E-01 -.594E-01 -.287E+00   -.146E-01 0.284E-01 0.577E-01
   0.167E+01 -.327E-01 -.759E+03   -.166E+01 0.433E-01 0.759E+03   0.221E-01 0.213E-01 0.404E+00   -.481E-01 -.130E-01 0.397E-02
   0.150E-01 0.221E+02 -.233E+04   -.152E-01 -.228E+02 0.233E+04   -.261E-03 0.762E+00 -.349E+00   0.307E-03 0.463E-03 -.562E-01
   0.410E+00 -.237E+01 0.231E+04   -.391E+00 0.237E+01 -.231E+04   -.300E-02 0.739E-02 -.133E+00   -.163E-01 -.274E-01 0.413E-01
   -.273E+01 -.540E+01 0.780E+03   0.279E+01 0.545E+01 -.780E+03   -.666E-01 0.115E-01 -.296E+00   0.190E-01 -.239E-01 0.582E-01
   0.513E+01 -.280E+01 -.800E+03   -.523E+01 0.285E+01 0.800E+03   0.949E-01 -.534E-01 0.332E+00   -.106E-01 0.626E-02 -.348E-01
   -.509E+01 0.758E+01 -.230E+04   0.504E+01 -.747E+01 0.230E+04   0.799E-01 -.879E-01 0.723E-01   -.177E-01 -.149E-01 -.286E-01
   -.655E-01 -.572E-01 0.231E+04   0.950E-01 0.716E-01 -.231E+04   0.305E-02 0.221E-02 -.110E+00   -.154E-01 -.691E-02 0.171E-01
   -.125E+01 -.704E+00 0.784E+03   0.125E+01 0.701E+00 -.784E+03   -.204E-01 -.109E-01 -.376E+00   0.279E-01 0.197E-01 0.393E-01
   0.840E+00 -.125E+01 -.759E+03   -.845E+00 0.123E+01 0.759E+03   -.692E-02 -.327E-01 0.397E+00   -.103E-01 0.500E-01 0.347E-02
   -.763E-01 -.187E+00 -.231E+04   0.150E+00 0.228E+00 0.231E+04   -.556E-01 -.304E-01 0.966E-01   -.158E-01 -.663E-02 0.235E-02
   0.282E+01 -.152E+01 0.231E+04   -.287E+01 0.155E+01 -.231E+04   0.111E-01 -.674E-02 -.246E-01   0.159E-02 0.630E-03 0.278E-01
   -.838E-02 -.105E+01 0.787E+03   0.879E-02 0.981E+00 -.787E+03   0.760E-04 0.269E-01 -.463E+00   -.403E-03 0.598E-01 0.551E-01
   -.110E-01 -.677E-01 -.783E+03   0.113E-01 0.650E-01 0.783E+03   -.218E-03 0.672E-04 0.450E+00   -.308E-03 0.347E-02 0.177E-01
   -.771E+01 0.478E+01 -.226E+04   0.778E+01 -.482E+01 0.226E+04   -.453E-01 0.136E-01 0.436E-01   -.163E-01 0.103E-01 -.290E-01
   -.236E-02 0.131E+00 0.231E+04   0.269E-02 -.169E+00 -.231E+04   -.380E-04 -.289E-02 -.111E+00   -.345E-03 0.192E-01 0.186E-01
   0.610E+01 0.390E+00 0.780E+03   -.618E+01 -.364E+00 -.780E+03   0.228E-01 -.591E-01 -.287E+00   0.145E-01 0.282E-01 0.577E-01
   -.167E+01 -.330E-01 -.759E+03   0.166E+01 0.439E-01 0.759E+03   -.221E-01 0.213E-01 0.403E+00   0.479E-01 -.132E-01 0.421E-02
   -.687E-02 0.321E+00 -.231E+04   0.678E-02 -.409E+00 0.231E+04   -.288E-03 0.618E-01 0.974E-01   0.514E-04 0.194E-01 0.296E-02
   0.633E-01 -.593E-01 0.231E+04   -.925E-01 0.739E-01 -.231E+04   -.312E-02 0.223E-02 -.110E+00   0.151E-01 -.711E-02 0.169E-01
   0.122E+01 -.705E+00 0.784E+03   -.123E+01 0.702E+00 -.784E+03   0.210E-01 -.108E-01 -.376E+00   -.286E-01 0.197E-01 0.393E-01
   -.865E+00 -.125E+01 -.759E+03   0.870E+00 0.123E+01 0.759E+03   0.763E-02 -.328E-01 0.397E+00   0.981E-02 0.501E-01 0.383E-02
   0.536E-01 -.188E+00 -.231E+04   -.127E+00 0.229E+00 0.231E+04   0.556E-01 -.301E-01 0.966E-01   0.156E-01 -.648E-02 0.234E-02
   -.219E+01 0.847E+00 0.231E+04   0.218E+01 -.865E+00 -.231E+04   0.715E-02 -.524E-03 -.136E+00   -.174E-01 0.272E-01 0.426E-01
   -.338E+01 0.505E+01 0.780E+03   0.340E+01 -.513E+01 -.780E+03   0.414E-01 0.526E-01 -.292E+00   -.334E-01 -.620E-02 0.568E-01
   -.582E+00 -.463E+00 -.764E+03   0.613E+00 0.484E+00 0.763E+03   -.853E-04 0.169E-02 0.383E+00   -.302E-01 -.186E-01 -.333E-02
   0.914E+01 0.549E+00 -.230E+04   -.902E+01 -.557E+00 0.230E+04   -.114E+00 -.249E-01 0.740E-01   -.495E-02 0.220E-01 -.307E-01
   -.287E-03 -.850E-01 0.231E+04   0.294E-03 0.853E-01 -.231E+04   -.331E-04 0.138E-02 -.154E+00   -.113E-04 -.153E-02 0.555E-01
   0.926E+00 0.495E+00 0.787E+03   -.865E+00 -.462E+00 -.787E+03   -.199E-01 -.110E-01 -.464E+00   -.533E-01 -.288E-01 0.549E-01
   -.273E+01 0.157E+01 -.782E+03   0.301E+01 -.173E+01 0.782E+03   -.220E+00 0.125E+00 0.301E+00   -.247E-01 0.103E-01 -.723E-02
   0.117E-01 -.182E+00 -.229E+04   -.116E-01 0.184E+00 0.229E+04   -.181E-03 0.452E-02 0.552E-01   0.589E-04 -.641E-03 -.312E-01
   -.184E+01 0.144E+01 0.231E+04   0.185E+01 -.142E+01 -.231E+04   0.475E-02 -.551E-02 -.135E+00   -.336E-01 -.940E-03 0.410E-01
   0.992E-02 -.299E+01 0.782E+03   -.102E-01 0.302E+01 -.782E+03   -.193E-03 -.598E-02 -.320E+00   0.218E-03 -.302E-01 0.604E-01
   0.479E-02 0.581E+01 -.800E+03   -.496E-02 -.592E+01 0.800E+03   -.177E-03 0.111E+00 0.331E+00   0.187E-03 -.175E-01 -.343E-01
   0.418E+01 -.832E+01 -.230E+04   -.411E+01 0.822E+01 0.230E+04   -.391E-01 0.112E+00 0.727E-01   -.237E-01 -.740E-02 -.299E-01
   -.493E+01 0.283E+01 0.230E+04   0.500E+01 -.287E+01 -.230E+04   0.222E-01 -.118E-01 -.169E-02   -.150E-01 0.702E-02 0.362E-01
   -.249E+01 0.140E+01 0.783E+03   0.252E+01 -.142E+01 -.783E+03   -.698E-02 0.531E-02 -.316E+00   -.275E-01 0.123E-01 0.607E-01
   0.768E+00 0.140E+01 -.759E+03   -.749E+00 -.140E+01 0.759E+03   0.305E-01 0.773E-02 0.400E+00   -.396E-01 -.325E-01 0.442E-02
   0.187E+02 -.108E+02 -.233E+04   -.193E+02 0.112E+02 0.233E+04   0.692E+00 -.403E+00 -.316E+00   -.145E-02 -.206E-02 -.566E-01
   0.493E+01 0.283E+01 0.230E+04   -.500E+01 -.287E+01 -.230E+04   -.222E-01 -.118E-01 -.166E-02   0.153E-01 0.683E-02 0.364E-01
   0.249E+01 0.139E+01 0.783E+03   -.252E+01 -.141E+01 -.783E+03   0.696E-02 0.548E-02 -.316E+00   0.273E-01 0.119E-01 0.606E-01
   -.781E+00 0.139E+01 -.759E+03   0.762E+00 -.138E+01 0.759E+03   -.303E-01 0.798E-02 0.400E+00   0.393E-01 -.327E-01 0.431E-02
   -.187E+02 -.108E+02 -.233E+04   0.193E+02 0.112E+02 0.233E+04   -.692E+00 -.403E+00 -.316E+00   0.148E-02 -.250E-02 -.566E-01
   -.143E-02 0.318E+01 0.231E+04   0.137E-02 -.324E+01 -.231E+04   0.493E-05 0.140E-01 -.246E-01   0.623E-05 0.317E-03 0.258E-01
   -.927E+00 0.480E+00 0.787E+03   0.866E+00 -.447E+00 -.787E+03   0.199E-01 -.107E-01 -.464E+00   0.533E-01 -.294E-01 0.549E-01
   0.272E+01 0.155E+01 -.782E+03   -.301E+01 -.170E+01 0.782E+03   0.220E+00 0.125E+00 0.301E+00   0.245E-01 0.982E-02 -.759E-02
   -.243E-01 -.917E+01 -.226E+04   0.244E-01 0.925E+01 0.226E+04   0.888E-03 -.400E-01 0.430E-01   -.310E-03 -.189E-01 -.268E-01
   0.184E+01 0.143E+01 0.231E+04   -.185E+01 -.142E+01 -.231E+04   -.481E-02 -.552E-02 -.135E+00   0.336E-01 -.135E-02 0.410E-01
   -.104E-01 0.140E+01 0.784E+03   0.107E-01 -.141E+01 -.784E+03   0.194E-03 0.250E-01 -.376E+00   -.327E-03 -.305E-01 0.382E-01
   -.727E-03 0.687E+00 -.763E+03   0.826E-03 -.717E+00 0.763E+03   0.860E-04 -.182E-02 0.381E+00   -.924E-04 0.316E-01 -.412E-02
   -.417E+01 -.832E+01 -.230E+04   0.410E+01 0.822E+01 0.230E+04   0.390E-01 0.112E+00 0.727E-01   0.239E-01 -.744E-02 -.297E-01
   0.219E+01 0.846E+00 0.231E+04   -.218E+01 -.864E+00 -.231E+04   -.727E-02 -.563E-03 -.136E+00   0.170E-01 0.270E-01 0.428E-01
   0.339E+01 0.504E+01 0.780E+03   -.340E+01 -.512E+01 -.780E+03   -.416E-01 0.528E-01 -.292E+00   0.336E-01 -.664E-02 0.568E-01
   0.599E+00 -.472E+00 -.764E+03   -.629E+00 0.494E+00 0.763E+03   -.153E-03 0.198E-02 0.384E+00   0.305E-01 -.188E-01 -.328E-02
   -.913E+01 0.540E+00 -.230E+04   0.901E+01 -.548E+00 0.230E+04   0.114E+00 -.248E-01 0.740E-01   0.495E-02 0.219E-01 -.306E-01
   0.108E-02 -.180E+00 -.293E+03   -.113E-02 0.201E+00 0.295E+03   0.481E-04 -.179E-01 -.170E+01   0.123E-04 -.143E-03 -.261E-02
   0.555E-04 0.576E-01 0.248E+01   0.790E-13 0.142E-11 0.227E-11   -.804E-03 -.452E-01 -.329E+01   -.218E-03 -.172E-02 0.846E+00

 POSITION                                       TOTAL-FORCE (eV/Angst)
     10.55998      0.00001      1.11585        -0.000556     -0.020162     -0.023433
      2.63732      1.52537      3.55347        -0.016283      0.033497      0.016734
      0.00690      3.05384      5.99426         0.027563      0.015949      0.023296
     -0.00015      0.00071      8.38094        -0.007361      0.010094     -0.011248
      9.23998      2.28632      1.11585         0.043993      0.023580      0.030466
      1.31999      3.81060      3.61105        -0.000122      0.000731      0.016292
      1.32004      0.77718      5.97265        -0.000093      0.032768     -0.010224
      9.23246      2.28474      8.32214        -0.003211     -0.013109      0.010015
      1.31998      2.28632      1.11585        -0.000022      0.085893      0.029704
     -1.31785      3.81229      3.55248         0.037431     -0.002136      0.020286
      3.95996      0.75960      5.93361        -0.020308      0.023342      0.004048
      1.32005      2.26314      8.53271        -0.000169     -0.018327      0.044098
      2.63998      0.00001      1.11585         0.000477     -0.020191     -0.023429
      0.00265      1.52538      3.55345         0.015807      0.033466      0.016823
      2.63319      3.05384      5.99430        -0.027941      0.016074      0.023155
      2.64027      0.00070      8.38096         0.006778      0.010032     -0.011401
      5.27998      0.00001      1.11585         0.016577      0.009277     -0.013380
      7.91992      1.52433      3.55059         0.014866      0.008509     -0.021799
      5.28349      3.05221      5.93401        -0.029159      0.003110     -0.002410
      5.27914      0.00131      8.40242         0.002060      0.003682     -0.009425
      3.95998      2.28632      1.11585        -0.044129      0.023605      0.030423
      6.59997      3.81064      3.54478         0.000101      0.016235     -0.017709
      6.60003      0.76349      5.96617        -0.000138      0.000427      0.012715
      3.96757      2.28471      8.32217         0.003843     -0.012459      0.010139
      6.59998      2.28632      1.11585        -0.000048     -0.020462     -0.013646
      3.95780      3.81226      3.55250        -0.037379     -0.001831      0.020089
      9.24010      0.75961      5.93362         0.020482      0.023294      0.003818
      6.60003      2.28966      8.40293        -0.000317     -0.007057     -0.008090
      7.91998      0.00001      1.11585        -0.016683      0.009301     -0.013352
      5.28000      1.52432      3.55058        -0.014377      0.008563     -0.021910
      7.91653      3.05223      5.93401         0.029848      0.003076     -0.002675
      7.92092      0.00128      8.40240        -0.002012      0.003859     -0.009606
      7.91998      4.57263      1.11585        -0.018992      0.008686     -0.026184
     -0.00037      6.09419      3.55295         0.020952     -0.030662      0.019135
     -2.64077      7.62211      5.94267         0.000461      0.004138     -0.015654
     -2.64142      4.57545      8.37996         0.002289     -0.009304     -0.006224
      6.59998      6.85894      1.11585        -0.000021     -0.000059     -0.059013
     -1.32011      8.38322      3.54482        -0.012897     -0.007398     -0.020411
     -1.30845      5.32962      5.97158         0.030570     -0.018528     -0.014345
     -3.95996      6.86087      8.35300         0.000013      0.005960     -0.009074
     -1.32002      6.85894      1.11585        -0.017101      0.011184     -0.025660
     -3.96001      8.38402      3.54536        -0.000211     -0.005284     -0.013269
      1.32005      5.32810      5.99434        -0.000142     -0.030894      0.022567
     -1.32105      6.86185      8.38058         0.008617      0.006333     -0.008597
     -0.00002      4.57263      1.11585         0.076159     -0.044121      0.028451
     -2.63928      6.09650      3.54475        -0.005741      0.003355     -0.009744
     -0.00351      7.62435      5.93389         0.010547     -0.028818      0.000278
     -0.02239      4.58771      8.52980        -0.006117      0.003873      0.048023
      2.63998      4.57263      1.11585        -0.076239     -0.044129      0.028492
      5.27924      6.09649      3.54473         0.005716      0.003504     -0.009750
      2.64356      7.62433      5.93388        -0.010222     -0.028607      0.000294
      2.66244      4.58773      8.52984         0.006510      0.003976      0.048035
      1.31998      6.85894      1.11585        -0.000038     -0.050657      0.030770
      3.96007      8.38321      3.54480         0.012943     -0.007067     -0.020250
      3.94852      5.32959      5.97156        -0.030535     -0.017912     -0.013828
      1.31998      6.86891      8.32262         0.000755      0.014118      0.010722
      3.95998      6.85894      1.11585         0.016983      0.011148     -0.025694
      1.31997      8.38332      3.55055         0.000176     -0.016418     -0.021515
      6.60002      5.33746      5.94261         0.000108     -0.001644     -0.018303
      3.96113      6.86187      8.38053        -0.008772      0.006119     -0.008766
      5.27998      4.57263      1.11585         0.018897      0.008662     -0.026191
      2.64035      6.09417      3.55296        -0.021096     -0.030427      0.019026
      5.28084      7.62211      5.94266        -0.000619      0.004398     -0.015486
      5.28149      4.57544      8.38000        -0.002502     -0.009172     -0.006316
      1.32002      3.80849      9.55258         0.000031      0.003016      0.020115
    total drift:                               -0.000966      0.010684      0.044021

  FREE ENERGIE OF THE ION-ELECTRON SYSTEM (eV)
  free  energy   TOTEN  =      -408.88153032 eV

  energy  without entropy=     -408.84392932  energy(sigma->0) =     -408.86899665

 d Force = 0.1970811E-02[ 0.172E-02, 0.222E-02]  d Energy = 0.1758221E-02 0.213E-03
 d Force = 0.1493324E+02[ 0.150E+02, 0.149E+02]  d Ewald  = 0.1493324E+02 0.206E-05

 Conjugate gradient step on ions:
 trial-energy change:   -0.001758  1 .order   -0.001971   -0.002217   -0.001725
  (g-gl).g = 0.282E-02      g.g   = 0.257E-02  gl.gl    = 0.291E-02
 g(Force)  = 0.257E-02   g(Stress)= 0.000E+00 ortho     = 0.184E-03
 gamma     =   0.97095
 trial     =   0.80513
 opt step  =   3.22051  (harmonic =   3.62756) maximal distance =0.02333001
 next E    =  -408.884766   (d E  =  -0.00499)

 reached required accuracy - stopping structural energy minimisation