 vasp.5.4.4.18Apr17-6-g9f103f2a35 (build Nov 30 2020 22:55:02) complex

 executed on             LinuxIFC date 2023.07.30  11:54:36

 INCAR:
 POTCAR:    PAW_PBE Pt 04Feb2005
 POTCAR:    PAW_PBE Cu 22Jun2005
 POTCAR:    PAW_PBE Ni 02Aug2007
 POTCAR:    PAW_PBE Fe 06Sep2000
 POTCAR:    PAW_PBE Co 02Aug2007
 POTCAR:    PAW_PBE H 15Jun2001
 POTCAR:    PAW_PBE Pt 04Feb2005
   VRHFIN =Pt: s1d9

   TITEL  = PAW_PBE Pt 04Feb2005
   POMASS =  195.080; ZVAL   =   10.000    mass and valenz
   ENMAX  =  230.283; ENMIN  =  172.712 eV

 POTCAR:    PAW_PBE Cu 22Jun2005
   VRHFIN =Cu: d10 p1

   TITEL  = PAW_PBE Cu 22Jun2005
   POMASS =   63.546; ZVAL   =   11.000    mass and valenz
   ENMAX  =  295.446; ENMIN  =  221.585 eV

 POTCAR:    PAW_PBE Ni 02Aug2007
   VRHFIN =Ni:

   TITEL  = PAW_PBE Ni 02Aug2007
   POMASS =   58.690; ZVAL   =   10.000    mass and valenz
   ENMAX  =  269.532; ENMIN  =  202.149 eV

 POTCAR:    PAW_PBE Fe 06Sep2000
   VRHFIN =Fe:  d7 s1

   TITEL  = PAW_PBE Fe 06Sep2000
   POMASS =   55.847; ZVAL   =    8.000    mass and valenz
   ENMAX  =  267.882; ENMIN  =  200.911 eV

 POTCAR:    PAW_PBE Co 02Aug2007
   VRHFIN =Co: d8 s1

   TITEL  = PAW_PBE Co 02Aug2007
   POMASS =   58.933; ZVAL   =    9.000    mass and valenz
   ENMAX  =  267.968; ENMIN  =  200.976 eV

 POTCAR:    PAW_PBE H 15Jun2001
   VRHFIN =H: ultrasoft test

   TITEL  = PAW_PBE H 15Jun2001
   POMASS =    1.000; ZVAL   =    1.000    mass and valenz
   ENMAX  =  250.000; ENMIN  =  200.000 eV

 Optimization of the real space projectors (new method)

 maximal supplied QI-value         = 14.36
 optimisation between [QCUT,QGAM] = [ 11.92, 23.98] = [ 39.79,161.09] Ry
 Optimized for a Real-space Cutoff    1.49 Angstroem

   l    n(q)    QCUT    max X(q) W(low)/X(q) W(high)/X(q)  e(spline)
   2     10    11.920    66.195    0.79E-04    0.18E-03    0.24E-06
   2     10    11.920    64.643    0.81E-04    0.19E-03    0.24E-06
   0     11    11.920    95.520    0.28E-04    0.54E-04    0.18E-06
   0     11    11.920    63.403    0.27E-04    0.52E-04    0.17E-06
   1     10    11.920    19.961    0.18E-04    0.11E-03    0.23E-06
   1     10    11.920    13.289    0.25E-04    0.87E-04    0.19E-06
 Optimization of the real space projectors (new method)

[...]

   l    n(q)    QCUT    max X(q) W(low)/X(q) W(high)/X(q)  e(spline)
   2      9    11.864    65.824    0.22E-03    0.53E-03    0.26E-06
   2      9    11.864    61.429    0.22E-03    0.53E-03    0.26E-06
   0      9    11.864    56.174    0.21E-03    0.32E-04    0.15E-06
   0      9    11.864    31.263    0.19E-03    0.30E-04    0.14E-06
   1      9    11.864    19.828    0.63E-04    0.30E-03    0.16E-06
   1      9    11.864    15.139    0.49E-04    0.25E-03    0.13E-06
 Optimization of the real space projectors (new method)

 maximal supplied QI-value         = 34.20
 optimisation between [QCUT,QGAM] = [ 11.97, 23.94] = [ 40.13,160.53] Ry
 Optimized for a Real-space Cutoff    1.18 Angstroem

   l    n(q)    QCUT    max X(q) W(low)/X(q) W(high)/X(q)  e(spline)
   0      8    11.971    19.460    0.15E-03    0.31E-03    0.25E-06
   0      8    11.971    12.209    0.13E-03    0.29E-03    0.25E-06
   1      8    11.971     4.655    0.22E-03    0.24E-03    0.21E-06
  PAW_PBE Pt 04Feb2005                  :
  PAW_PBE Cu 22Jun2005                  :
  PAW_PBE Ni 02Aug2007                  :
  PAW_PBE Fe 06Sep2000                  :
  PAW_PBE Co 02Aug2007                  :
  PAW_PBE H 15Jun2001                   :

 POSCAR: 10.56
  positions in direct lattice
  velocities in cartesian coordinates
 exchange correlation table for  LEXCH =        8
   RHO(1)=    0.500       N(1)  =     2000
   RHO(2)=  100.500       N(2)  =     4000

 ion  position               nearest neighbor table
   1  0.789  0.876  0.317-  49 2.57  59 2.58  19 2.62  61 2.65  60 2.66  33 2.67  29 2.67  28 2.71
                             2 2.72   4 2.82  12 2.84  11 2.90
   2  0.044  0.880  0.316-  79 2.55  77 2.57  60 2.61  30 2.64  22 2.65  28 2.66  52 2.68   1 2.72
                            33 2.73   6 2.76   4 2.82  16 2.87
   3  0.288  0.375  0.321-  39 2.60  64 2.61  33 2.61  68 2.65  31 2.66  19 2.67  43 2.68  30 2.72
                             5 2.76  18 2.78  25 2.81  13 2.91
   4  0.879  0.957  0.424-  16 2.63  12 2.65   6 2.65  17 2.65  11 2.65   9 2.65  60 2.70   2 2.82
                             1 2.82
   5  0.127  0.457  0.427-  13 2.62   7 2.63  10 2.63  12 2.63  16 2.65  25 2.65   3 2.76  39 2.79
                            33 2.79
   6  0.128  0.958  0.422-   8 2.61  10 2.63  14 2.64   4 2.65   9 2.65  16 2.65   2 2.76  52 2.82
                            22 2.88
   7  0.878  0.457  0.423-  82 1.89   9 2.63   5 2.63  15 2.63  10 2.63  12 2.63  27 2.66  39 2.70
                            29 2.73  75 2.77
   8  0.376  0.956  0.417-   6 2.61  14 2.62  43 2.62  27 2.63  10 2.65  52 2.65  61 2.66  11 2.67
                            13 2.69
   9  0.877  0.209  0.422-  17 2.62   7 2.63  15 2.64  10 2.64   6 2.65   4 2.65  60 2.65  75 2.72
                            22 2.83
  10  0.127  0.208  0.423-   6 2.63  13 2.63   7 2.63   5 2.63   9 2.64   8 2.65  43 2.73  39 2.73
                            22 2.82
  11  0.628  0.957  0.430-  81 1.76  12 2.64  27 2.64   4 2.65  17 2.67  13 2.67   8 2.67   1 2.90
                            19 2.93  61 2.94
  12  0.877  0.707  0.425-  82 1.80   5 2.63   7 2.63  16 2.64  11 2.64   4 2.65  27 2.65  33 2.75
                            29 2.82   1 2.84
  13  0.375  0.209  0.434-  81 1.75   5 2.62  10 2.63  25 2.66  11 2.67   8 2.69  17 2.69   3 2.91
                            43 2.97  19 3.00
  14  0.378  0.708  0.427-  27 2.62   8 2.62  25 2.63   6 2.64  15 2.64  16 2.65  44 2.76  30 2.79
                            52 2.88
  15  0.628  0.459  0.424-  27 2.62   7 2.63  17 2.64   9 2.64  14 2.64  25 2.65  44 2.76  18 2.78
                            75 2.80
  16  0.127  0.708  0.425-   4 2.63  25 2.63  12 2.64   5 2.65  14 2.65   6 2.65  33 2.77  30 2.78
                             2 2.87
  17  0.629  0.209  0.424-   9 2.62  15 2.64   4 2.65  25 2.66  11 2.67  60 2.68  13 2.69  18 2.76
                            19 2.88
  18  0.554  0.370  0.318-  67 2.53  75 2.55  60 2.57  68 2.60  44 2.68  26 2.68  19 2.73  30 2.75
                            17 2.76   3 2.78  15 2.78  25 2.91
  19  0.538  0.120  0.316-  59 2.55  80 2.55  68 2.57  43 2.59  61 2.61   1 2.62   3 2.67  18 2.73
                            60 2.74  17 2.88  11 2.93  13 3.00
  20  0.547  0.122  0.038-  57 2.54  37 2.59  48 2.60  62 2.60  47 2.60  34 2.65  45 2.68  63 2.71
                            56 2.75
  21  0.124  0.462  0.127-  36 2.55  47 2.57  40 2.58  58 2.61  42 2.61  64 2.63  31 2.66  69 2.66
                            50 2.67  74 2.69  70 2.69  57 2.69
  22  0.041  0.134  0.313-  65 2.47  75 2.54  55 2.54  77 2.57  39 2.59  43 2.59  60 2.65   2 2.65
                            52 2.74  10 2.82   9 2.83   6 2.88
  23  0.032  0.135  0.034-  70 2.57  62 2.59  40 2.59  41 2.60  76 2.63  45 2.70  24 2.70  35 2.71
                            53 2.86
  24  0.127  0.955  0.132-  79 2.52  55 2.55  53 2.61  35 2.62  77 2.62  58 2.62  73 2.64  70 2.65
                            38 2.67  66 2.68  23 2.70  41 2.74
  25  0.376  0.460  0.427-  16 2.63  14 2.63  15 2.65   5 2.65  17 2.66  13 2.66   3 2.81  30 2.84
                            18 2.91
  26  0.458  0.546  0.220-  73 2.50  74 2.51  51 2.53  79 2.60  64 2.61  30 2.65  68 2.66  18 2.68
                            32 2.69  44 2.70  78 2.71  67 2.74
  27  0.626  0.708  0.424-  82 1.88  14 2.62  15 2.62   8 2.63  11 2.64  12 2.65   7 2.66  44 2.70
                            29 2.75  61 2.78
  28  0.964  0.793  0.218-  66 2.54  50 2.56  58 2.58  77 2.63  42 2.64  64 2.65   2 2.66  79 2.68
                            59 2.70   1 2.71  49 2.75  33 2.75
  29  0.790  0.622  0.319-  42 2.59  44 2.60  32 2.61  39 2.61  75 2.64  61 2.65  33 2.66  49 2.66
                             1 2.67   7 2.73  27 2.75  12 2.82
  30  0.294  0.630  0.319-  79 2.57  64 2.60  44 2.61  52 2.62   2 2.64  26 2.65  33 2.70   3 2.72
                            18 2.75  16 2.78  14 2.79  25 2.84
  31  0.211  0.284  0.223-  57 2.55  70 2.55  65 2.59  43 2.61  55 2.61  80 2.64  21 2.66  39 2.66
                             3 2.66  68 2.67  42 2.71  64 2.72
  32  0.717  0.537  0.221-  69 2.51  54 2.56  51 2.57  65 2.60  29 2.61  42 2.61  67 2.64  75 2.64
                            49 2.68  26 2.69  44 2.74  78 2.78
  33  0.042  0.623  0.321-  42 2.57  39 2.59   3 2.61  64 2.63  29 2.66   1 2.67  30 2.70   2 2.73
                            12 2.75  28 2.75  16 2.77   5 2.79
  34  0.797  0.870  0.037-  50 2.48  66 2.50  36 2.54  48 2.61  35 2.62  63 2.64  71 2.65  20 2.65
                            62 2.72
  35  0.044  0.872  0.035-  58 2.56  36 2.57  66 2.61  24 2.62  34 2.62  72 2.70  23 2.71  62 2.72
                            53 2.74
  36  0.039  0.631  0.035-  58 2.54  34 2.54  21 2.55  35 2.57  50 2.59  40 2.68  71 2.72  72 2.76
                            47 2.78
  37  0.626  0.214  0.133-  68 2.52  59 2.52  67 2.52  41 2.56  51 2.57  56 2.58  66 2.59  20 2.59
                            74 2.60  62 2.60  57 2.64  48 2.76
  38  0.376  0.961  0.131-  80 2.47  53 2.51  55 2.53  78 2.53  63 2.53  45 2.55  54 2.58  48 2.61
                            57 2.62  24 2.67  70 2.69  73 2.69
  39  0.041  0.378  0.321-  33 2.59  22 2.59   3 2.60  42 2.60  29 2.61  75 2.63  31 2.66  65 2.66
                             7 2.70  43 2.70  10 2.73   5 2.79
  40  0.040  0.377  0.033-  69 2.55  21 2.58  23 2.59  76 2.61  70 2.61  45 2.66  71 2.67  36 2.68
                            47 2.81
  41  0.868  0.215  0.131-  67 2.47  65 2.53  76 2.53  77 2.53  37 2.56  51 2.56  62 2.57  69 2.59
                            23 2.60  70 2.61  66 2.63  24 2.74
  42  0.960  0.545  0.225-  33 2.57  29 2.59  39 2.60  50 2.61  32 2.61  21 2.61  28 2.64  64 2.65
                            69 2.68  65 2.69  49 2.70  31 2.71
  43  0.293  0.119  0.319-  52 2.54  55 2.57  22 2.59  19 2.59  31 2.61  61 2.61   8 2.62  80 2.64
                             3 2.68  39 2.70  10 2.73  13 2.97
  44  0.541  0.630  0.321-  61 2.56  52 2.56  29 2.60  30 2.61  78 2.64  18 2.68  27 2.70  26 2.70
                            75 2.73  32 2.74  15 2.76  14 2.76
  45  0.292  0.126  0.037-  38 2.55  57 2.57  70 2.59  40 2.66  53 2.66  20 2.68  23 2.70  47 2.70
                            63 2.74
  46  0.545  0.626  0.042-  73 2.43  51 2.44  54 2.47  71 2.53  53 2.54  76 2.54  63 2.55  72 2.56
                            56 2.56
  47  0.307  0.374  0.039-  74 2.45  57 2.52  56 2.54  21 2.57  20 2.60  72 2.62  45 2.70  36 2.78
                            40 2.81
  48  0.628  0.952  0.133-  49 2.43  80 2.48  59 2.50  63 2.52  50 2.54  54 2.54  20 2.60  34 2.61
                            66 2.61  38 2.61  57 2.66  37 2.76
  49  0.701  0.798  0.223-  48 2.43  54 2.51  80 2.51  61 2.55  78 2.56   1 2.57  50 2.57  59 2.60
                            29 2.66  32 2.68  42 2.70  28 2.75
  50  0.866  0.710  0.128-  71 2.42  34 2.48  48 2.54  28 2.56  49 2.57  54 2.58  36 2.59  42 2.61
[...]
   -.114E+03 0.969E+01 -.146E+04   0.114E+03 -.989E+01 0.145E+04   0.263E+00 0.207E+00 0.276E+01   -.127E-02 -.185E-01 0.682E-01
   0.426E-01 -.209E+02 -.286E+04   0.338E-01 0.209E+02 0.285E+04   -.844E-01 -.227E-01 0.107E+01   0.203E-01 0.313E-01 0.796E-02
   -.208E+02 -.970E+01 -.293E+04   0.212E+02 0.921E+01 0.293E+04   -.444E+00 0.568E+00 0.109E+01   -.252E-02 -.244E-01 0.326E-01
   0.360E+02 -.604E+01 -.288E+04   -.359E+02 0.583E+01 0.288E+04   -.702E-01 0.139E+00 0.887E+00   -.139E-01 0.232E-01 0.526E-01
   0.296E+02 0.144E+02 -.291E+04   -.296E+02 -.155E+02 0.291E+04   0.529E-01 0.105E+01 0.801E+00   -.371E-01 -.381E-01 -.545E-01
   -.171E+02 0.237E+01 -.286E+04   0.165E+02 -.309E+01 0.285E+04   0.681E+00 0.762E+00 0.209E+01   -.104E-01 0.139E-01 0.451E-01
   0.222E+02 0.263E+02 -.287E+04   -.225E+02 -.261E+02 0.287E+04   0.264E+00 -.259E+00 0.159E+01   -.333E-02 0.463E-02 -.180E-01
   0.261E+02 0.222E+02 -.291E+04   -.262E+02 -.221E+02 0.291E+04   0.107E+00 -.206E-01 0.666E+00   -.285E-01 -.183E-01 0.254E-01
   -.322E+02 0.866E+01 -.286E+04   0.320E+02 -.829E+01 0.286E+04   0.224E+00 -.398E+00 -.609E+00   -.888E-03 0.217E-01 0.391E-01
   -.736E+01 -.432E+02 -.290E+04   0.802E+01 0.435E+02 0.290E+04   -.669E+00 -.304E+00 0.234E+00   -.285E-02 0.208E-02 -.388E-02
   -.306E+02 -.127E+02 -.293E+04   0.306E+02 0.127E+02 0.293E+04   0.389E-01 -.579E-02 -.699E+00   -.147E-01 -.193E-01 0.202E-01
   0.282E+02 0.882E+00 -.294E+04   -.282E+02 -.962E+00 0.294E+04   -.503E-01 0.939E-01 0.907E+00   -.930E-02 0.280E-02 0.392E-01
   0.106E+02 0.334E+02 -.289E+04   -.108E+02 -.335E+02 0.289E+04   0.217E+00 0.203E+00 0.108E+01   0.169E-01 -.384E-01 -.672E-02
   -.990E+01 -.260E+02 -.289E+04   0.993E+01 0.258E+02 0.289E+04   -.783E-01 0.163E+00 0.763E+00   0.150E-01 0.178E-01 0.246E-01
   0.258E+01 0.107E+02 -.283E+04   -.169E+01 -.104E+02 0.283E+04   -.979E+00 -.285E+00 0.141E+01   0.375E-01 -.759E-02 0.120E-01
   0.502E+02 0.480E+02 -.140E+04   -.485E+02 -.490E+02 0.140E+04   -.171E+01 0.112E+01 0.275E+01   0.697E-01 -.199E-01 0.703E-01
   -.846E+02 -.356E+02 -.143E+04   0.842E+02 0.346E+02 0.142E+04   0.315E+00 0.101E+01 0.379E+01   0.176E-01 -.540E-02 0.673E-01
   -.228E+02 -.237E+02 0.300E+04   0.228E+02 0.240E+02 -.299E+04   -.341E-01 -.281E+00 -.197E+01   0.428E-01 0.933E-02 -.442E-01
   -.728E+02 0.222E+02 0.148E+04   0.734E+02 -.219E+02 -.148E+04   -.591E+00 -.316E+00 -.946E-01   -.605E-01 0.381E-01 0.114E-01
   0.992E+02 0.249E+02 -.139E+04   -.996E+02 -.239E+02 0.139E+04   0.604E+00 -.112E+01 0.325E+01   -.475E-01 0.620E-01 0.125E+00
   0.349E+02 0.499E+02 0.303E+04   -.355E+02 -.488E+02 -.303E+04   0.675E+00 -.121E+01 -.218E+01   -.728E-01 0.875E-01 -.645E-01
   0.908E+02 0.309E+01 0.147E+04   -.910E+02 -.437E+01 -.147E+04   0.867E-01 0.125E+01 -.115E+01   -.280E-01 0.234E-01 0.309E-02
   -.179E+02 0.202E+02 -.288E+04   0.176E+02 -.200E+02 0.288E+04   0.270E+00 -.249E+00 0.643E+00   0.169E-01 0.454E-02 0.241E-01
   0.529E+02 0.626E+02 0.274E+02   -.541E+02 -.625E+02 -.292E+02   0.110E+01 -.497E-01 0.167E+01   0.734E-01 -.597E-01 0.876E-01
   -.156E+02 -.200E+02 -.290E+04   0.145E+02 0.206E+02 0.290E+04   0.122E+01 -.521E+00 0.943E+00   -.168E-01 -.143E-01 -.136E-01
   -.610E+02 -.398E+02 0.116E+03   0.614E+02 0.398E+02 -.118E+03   -.416E+00 -.830E-01 0.175E+01   -.639E-01 -.382E-02 0.101E+00
   0.143E+02 -.442E+02 -.150E+04   -.147E+02 0.442E+02 0.150E+04   0.441E+00 -.153E-01 0.250E+01   -.325E-01 -.400E-01 0.388E-01
   0.368E+02 0.574E+02 -.144E+04   -.370E+02 -.566E+02 0.144E+04   0.940E-01 -.751E+00 0.275E+01   0.110E-01 -.314E-01 0.109E+00
   -.821E+02 -.511E+02 0.817E+02   0.823E+02 0.503E+02 -.827E+02   -.162E+00 0.742E+00 0.109E+01   0.102E-01 0.204E-01 0.126E+00
   0.452E+02 0.495E+02 0.152E+02   -.446E+02 -.506E+02 -.161E+02   -.726E+00 0.112E+01 0.961E+00   0.158E-01 -.124E-01 0.479E-01
   -.689E+02 -.738E+02 -.162E+04   0.687E+02 0.735E+02 0.162E+04   0.206E+00 0.459E+00 0.107E+01   -.243E-01 -.439E-02 0.763E-01
   0.103E+02 -.905E+02 0.332E+04   -.107E+02 0.907E+02 -.331E+04   0.315E+00 -.102E-02 -.238E+01   -.232E-01 -.629E-01 -.576E-01
   -.328E+02 -.507E+02 0.329E+04   0.322E+02 0.503E+02 -.328E+04   0.746E+00 0.448E+00 -.294E+01   -.165E-01 -.118E-01 -.754E-01
   -.545E+02 0.439E+02 0.331E+04   0.547E+02 -.436E+02 -.331E+04   -.170E+00 -.319E+00 -.357E+01   -.655E-01 -.146E-01 -.494E-01
   0.523E+02 0.291E+02 0.158E+04   -.523E+02 -.291E+02 -.158E+04   -.752E-01 -.132E-01 -.136E+01   0.485E-01 0.556E-01 0.220E-01
   0.210E+02 -.663E+02 0.168E+04   -.204E+02 0.661E+02 -.168E+04   -.636E+00 0.157E+00 -.921E+00   0.579E-01 -.472E-01 0.605E-01
   0.134E+02 0.158E+02 -.162E+04   -.137E+02 -.161E+02 0.162E+04   0.456E+00 0.227E+00 0.121E+01   -.703E-01 -.125E-01 0.797E-01
   -.318E+02 0.350E+01 0.335E+04   0.304E+02 -.395E+01 -.335E+04   0.155E+01 0.368E+00 -.330E+01   -.138E+00 0.104E+00 -.359E-01
   0.391E+01 0.813E+02 0.163E+04   -.417E+01 -.812E+02 -.163E+04   0.358E+00 -.398E+00 -.115E+01   -.418E-01 0.141E+00 -.435E-01
   -.564E+02 0.150E+02 0.404E+02   0.563E+02 -.146E+02 -.407E+02   0.882E-01 -.326E+00 0.640E-01   -.775E-01 0.308E-02 0.652E-01
   -.808E+02 -.431E+02 -.163E+04   0.809E+02 0.425E+02 0.163E+04   -.565E-02 0.710E+00 0.167E+01   0.386E-02 0.141E-01 0.105E+00
   0.888E+01 0.714E+02 -.162E+04   -.873E+01 -.704E+02 0.162E+04   -.236E+00 -.970E+00 0.963E+00   0.548E-01 -.638E-01 0.604E-01
   -.375E+02 -.255E+01 0.331E+04   0.380E+02 0.206E+01 -.330E+04   -.441E+00 0.464E+00 -.279E+01   0.861E-03 0.985E-02 -.806E-01
   0.204E+02 0.217E+02 0.304E+04   -.204E+02 -.215E+02 -.304E+04   -.111E+00 -.108E+00 -.623E+00   0.105E+00 -.112E+00 -.262E-01
   -.198E+02 0.577E+01 0.297E+04   0.214E+02 -.590E+01 -.297E+04   -.166E+01 0.815E-01 -.214E+01   0.215E-01 0.443E-01 -.412E-01
   -.671E+02 -.115E+03 0.148E+04   0.672E+02 0.115E+03 -.148E+04   -.946E-01 0.502E+00 -.909E+00   -.511E-02 -.471E-01 0.554E-01
   -.704E+02 -.154E+02 -.538E+02   0.698E+02 0.161E+02 0.531E+02   0.732E+00 -.762E+00 0.650E+00   -.287E-01 -.406E-01 0.774E-01
   -.110E+03 -.481E+00 0.148E+04   0.110E+03 0.960E+00 -.148E+04   0.292E-01 -.432E+00 -.472E+00   -.957E-01 -.807E-01 -.107E-01
   0.422E+02 0.329E+02 0.148E+04   -.422E+02 -.325E+02 -.148E+04   -.396E-01 -.368E+00 0.432E-01   0.112E+00 -.191E-01 -.377E-01
   0.728E+02 0.229E+02 -.146E+04   -.724E+02 -.231E+02 0.146E+04   -.447E+00 0.202E+00 0.168E+01   0.290E-01 0.128E-01 0.108E+00
   0.457E+02 -.349E+02 0.303E+04   -.449E+02 0.337E+02 -.303E+04   -.853E+00 0.132E+01 -.200E+01   -.537E-03 -.373E-01 -.724E-01
   0.166E+02 0.360E+02 0.146E+04   -.162E+02 -.357E+02 -.146E+04   -.438E+00 -.158E+00 -.400E+00   0.641E-01 -.112E+00 0.107E-01
   0.795E+02 -.494E+02 0.469E+02   -.793E+02 0.491E+02 -.470E+02   -.193E+00 0.325E+00 -.185E+00   0.321E-01 0.139E-01 0.127E+00
   0.871E+01 0.564E+02 0.244E+04   -.847E+01 -.559E+02 -.244E+04   -.332E+00 -.525E+00 -.281E+01   0.751E-01 0.242E-01 -.148E-01
   -.201E+02 -.502E+02 0.116E+04   0.202E+02 0.506E+02 -.116E+04   -.853E-01 -.333E+00 -.761E+00   0.314E-01 0.967E-02 0.399E-01
   0.222E+02 -.148E+02 0.118E+04   -.218E+02 0.145E+02 -.118E+04   -.420E+00 0.363E+00 -.731E+00   -.257E-01 -.312E-01 -.230E-01
   -.506E+02 -.423E+02 -.224E+02   0.508E+02 0.427E+02 0.220E+02   -.230E+00 -.462E+00 0.365E+00   -.883E-02 0.750E-02 0.950E-01
   0.444E+02 0.146E+02 -.117E+04   -.442E+02 -.145E+02 0.117E+04   -.209E+00 -.198E+00 0.120E+01   0.178E-01 0.386E-01 0.757E-01
[...]
   -.409E+02 0.282E+02 0.135E+04   0.410E+02 -.282E+02 -.135E+04   0.127E-01 -.219E-01 -.111E+00   -.873E-01 0.655E-01 -.632E-01
   -.240E+02 -.794E+01 0.134E+04   0.243E+02 0.842E+01 -.134E+04   -.245E+00 -.559E+00 -.998E+00   -.448E-01 0.683E-01 0.104E-01
   -.681E+01 -.924E+00 0.272E+04   0.567E+01 0.151E+01 -.271E+04   0.113E+01 -.467E+00 -.239E+01   -.401E-01 -.923E-01 0.436E-02
   0.349E+02 0.199E+02 0.270E+04   -.340E+02 -.202E+02 -.269E+04   -.824E+00 0.357E+00 -.279E+01   0.110E-01 -.341E-01 -.710E-01
   0.712E+02 0.304E+01 0.132E+04   -.716E+02 -.317E+01 -.132E+04   0.271E+00 0.242E+00 -.113E-01   0.593E-01 -.662E-01 -.125E-01
   0.642E+02 0.295E+02 0.130E+04   -.645E+02 -.293E+02 -.130E+04   0.221E+00 -.114E+00 -.948E-01   0.419E-01 -.186E-01 -.353E-03
   0.533E+02 0.271E+02 -.129E+04   -.535E+02 -.276E+02 0.128E+04   0.273E+00 0.474E+00 0.122E+01   -.581E-02 -.485E-02 0.733E-01
   0.498E+02 0.555E+02 0.274E+04   -.505E+02 -.551E+02 -.274E+04   0.672E+00 -.558E+00 -.184E+01   0.204E-01 0.678E-01 0.662E-02
   0.499E+02 0.310E+02 0.370E+01   -.505E+02 -.305E+02 -.384E+01   0.614E+00 -.589E+00 -.383E-01   -.340E-01 0.457E-01 0.114E+00
   0.206E+02 0.767E+02 -.110E+02   -.206E+02 -.758E+02 0.113E+02   -.253E-01 -.104E+01 -.444E+00   0.824E-01 -.305E-01 0.746E-01
   0.102E+03 0.466E+02 0.365E+02   -.101E+03 -.464E+02 -.368E+02   -.605E+00 -.251E+00 0.765E-01   0.487E-02 -.364E-02 0.101E+00
   -.802E+02 -.108E+03 0.144E+02   0.806E+02 0.107E+03 -.146E+02   -.428E+00 0.364E+00 0.101E+00   0.204E-01 -.254E-01 0.102E+00
   0.324E+00 0.292E+01 -.347E+03   -.404E+00 -.305E+01 0.349E+03   0.983E-01 0.137E+00 -.197E+01   -.636E-03 0.397E-03 -.222E-02
   0.285E+01 0.307E+00 -.347E+03   -.307E+01 -.374E+00 0.349E+03   0.221E+00 0.443E-01 -.169E+01   -.125E-02 -.943E-03 -.959E-03
   -.978E+00 -.109E+01 -.627E+00   0.266E-13 0.372E-12 -.207E-10   0.105E+01 0.119E+01 -.167E+01   -.517E-01 -.109E+00 0.231E+01

 POSITION                                       TOTAL-FORCE (eV/Angst)
     12.95602      8.00388      6.98027         0.000094      0.000505     -0.011853
      5.11741      8.05642      6.95109        -0.000858     -0.000714     -0.003481
      5.03107      3.43342      7.06100        -0.001297     -0.002885     -0.007040
     14.33691      8.75513      9.32708         0.012604      0.007305     -0.000383
      3.76847      4.17360      9.38270         0.019590      0.004515     -0.005853
      6.42145      8.76517      9.27843         0.004077      0.001114     -0.015055
     11.68058      4.15168      9.34554         0.010404      0.021015      0.024676
      9.02687      8.75143      9.17365         0.000791      0.002405     -0.004072
     10.35985      1.90544      9.28053         0.013708      0.002703     -0.002499
      2.44608      1.90100      9.28277         0.002651      0.000514     -0.004721
     11.68351      8.77269      9.44539         0.016905      0.011678     -0.026158
     13.03287      6.48448      9.40216        -0.011913     -0.002980      0.001912
      5.06058      1.91735      9.54425         0.009775      0.019506     -0.010185
      7.72471      6.48026      9.38054         0.006642      0.016149     -0.000696
      9.03431      4.18789      9.32444         0.002171      0.006590     -0.006966
      5.08704      6.47394      9.34841         0.005667      0.019682      0.006838
      7.74556      1.90924      9.31901        -0.006498      0.010924     -0.009704
      7.80742      3.38116      6.98448        -0.002577      0.005775     -0.008437
      6.31985      1.09953      6.94568         0.001760     -0.002236     -0.001115
      6.42748      1.11951      0.84379        -0.000421      0.036429      0.012289
      3.74457      4.22498      2.80295        -0.003537      0.018419     -0.033732
      1.13508      1.22555      6.88942         0.003683      0.007895     -0.004292
      1.05351      1.23301      0.75714         0.003885      0.013627      0.007390
      6.37970      8.73232      2.89580        -0.004335      0.002927      0.009035
      6.40461      4.20825      9.39734         0.013662     -0.002369     -0.001569
      7.71519      4.98986      4.84188        -0.012576     -0.044618     -0.020361
     10.31258      6.49035      9.35638         0.014978      0.010054      0.011359
     14.36690      7.24966      4.78751        -0.052467     -0.008439     -0.069680
     11.62729      5.68526      7.03551         0.000084      0.003609     -0.017297
      6.42707      5.76251      7.02027        -0.000909      0.002638     -0.008055
      3.72880      2.59487      4.89932         0.048946      0.010132      0.026316
     10.40714      4.90964      4.85294         0.047173      0.043004      0.086330
      3.72802      5.70097      7.05995         0.001894      0.001457     -0.001243
     13.01076      7.95414      0.82285        -0.013723      0.028974     -0.015658
      5.07062      7.97664      0.75916        -0.007132      0.013623     -0.001665
      3.74725      5.77233      0.77268         0.008472      0.007601     -0.012595
      7.73906      1.95923      2.91892         0.008633     -0.000231     -0.006705
      9.04575      8.78897      2.87226        -0.005941     -0.009321      0.006170
      2.42970      3.46697      7.05422         0.004422     -0.002540     -0.003793
      2.40788      3.44595      0.73676        -0.003167      0.023000     -0.001650
     10.29842      1.96823      2.88139         0.026050     -0.012985     -0.004912
     13.01351      4.98805      4.94410        -0.001866     -0.001032      0.019722
      3.72368      1.09097      7.02045         0.002384      0.000063     -0.004200
      9.03961      5.76073      7.06821        -0.010990      0.005559     -0.002491
      3.74683      1.15285      0.81959        -0.000640      0.004454      0.009329
      9.06513      5.72471      0.92537        -0.014597      0.027013      0.003692
      5.21212      3.41637      0.86086        -0.007683      0.006055     -0.009791
     11.65625      8.70496      2.91787        -0.021942     -0.018995      0.024873
     11.62151      7.29974      4.90178         0.064603     -0.023762      0.047575
     12.89980      6.49745      2.82364         0.017301     -0.017410     -0.004758
      9.01343      4.18612      2.81919         0.023721      0.018455     -0.009490
      7.79546      7.99823      6.95089         0.001888      0.002277     -0.002883
      7.81053      7.92859      0.86888        -0.015926     -0.002782      0.016777
     10.31657      6.54831      2.89472         0.018938      0.002347     -0.016600
      2.46166      0.31661      4.92733        -0.015493     -0.031520     -0.042048
      7.75154      3.52543      0.86333        -0.003173      0.002233      0.013002
      5.10291      1.89984      2.87069        -0.003144      0.034348     -0.003811
      5.17349      6.40557      2.77226        -0.009265      0.018765      0.031131
      7.65418      0.39388      4.89233        -0.036397     -0.049818      0.082391
      9.05570      1.14059      7.10152        -0.002699     -0.002317     -0.001923
[...]
      6.39598      2.67997      4.92292        -0.011040     -0.087716      0.055572
     11.64052      4.17844      2.78900        -0.010955      0.016282      0.010745
      2.34972      1.92500      2.86197         0.009455      0.003142     -0.023672
     11.59075      5.72177      0.94802        -0.027920      0.009082     -0.003614
      6.50379      5.69604      0.91052        -0.005358      0.013097      0.000070
      7.71278      6.45493      2.81038        -0.016265      0.018368      0.043604
      6.43155      4.20716      2.83788         0.005415     -0.011653      0.003139
     10.36075      3.37874      7.00110        -0.000690     -0.002863      0.002538
     10.36553      3.54396      0.90454        -0.020561      0.003203     -0.026331
     10.23662      0.46679      4.91587        -0.045352     -0.038838      0.007055
      9.06408      7.34028      4.95059         0.009935     -0.055076     -0.029862
      6.48344      7.27349      4.94428         0.012842     -0.041013     -0.054636
      5.04827      0.31035      4.87551         0.032781      0.011563      0.030190
      5.66409      0.68373     10.63329         0.014419      0.000049     -0.022878
     11.71517      5.71057     10.34700        -0.001100     -0.024592      0.041056
    total drift:                                0.015157     -0.013226      0.012236

  FREE ENERGIE OF THE ION-ELECTRON SYSTEM (eV)
  free  energy   TOTEN  =      -518.39308391 eV

  energy  without entropy=     -518.39916323  energy(sigma->0) =     -518.39511035

 d Force = 0.1058433E-02[ 0.862E-03, 0.125E-02]  d Energy = 0.1095216E-02-0.368E-04
 d Force =-0.1927433E+02[-0.193E+02,-0.193E+02]  d Ewald  =-0.1927433E+02-0.179E-05

 Conjugate gradient step on ions:
 trial-energy change:   -0.001095  1 .order   -0.001058   -0.001255   -0.000862
  (g-gl).g = 0.117E-02      g.g   = 0.107E-02  gl.gl    = 0.179E-02
 g(Force)  = 0.107E-02   g(Stress)= 0.000E+00 ortho     =-0.920E-04
 gamma     =   0.65704
 trial     =   1.24611
 opt step  =   3.97925  (harmonic =   3.97925) maximal distance =0.01265564
 next E    =  -518.393992   (d E  =  -0.00200)

 reached required accuracy - stopping structural energy minimisation