 vasp.5.4.4.18Apr17-6-g9f103f2a35 (build Nov 30 2020 22:55:02) complex

 executed on             LinuxIFC date 2023.08.04  12:53:53

 INCAR:
 POTCAR:    PAW_PBE Pt 04Feb2005
 POTCAR:    PAW_PBE Cu 22Jun2005
 POTCAR:    PAW_PBE Ni 02Aug2007
 POTCAR:    PAW_PBE Fe 06Sep2000
 POTCAR:    PAW_PBE Co 02Aug2007
 POTCAR:    PAW_PBE H 15Jun2001

 POTCAR:    PAW_PBE Pt 04Feb2005
   VRHFIN =Pt: s1d9

   TITEL  = PAW_PBE Pt 04Feb2005
   POMASS =  195.080; ZVAL   =   10.000    mass and valenz
   ENMAX  =  230.283; ENMIN  =  172.712 eV

 POTCAR:    PAW_PBE Cu 22Jun2005
   VRHFIN =Cu: d10 p1

   TITEL  = PAW_PBE Cu 22Jun2005
   POMASS =   63.546; ZVAL   =   11.000    mass and valenz
   ENMAX  =  295.446; ENMIN  =  221.585 eV

 POTCAR:    PAW_PBE Ni 02Aug2007
   VRHFIN =Ni:

   TITEL  = PAW_PBE Ni 02Aug2007
   POMASS =   58.690; ZVAL   =   10.000    mass and valenz
   ENMAX  =  269.532; ENMIN  =  202.149 eV

 POTCAR:    PAW_PBE Fe 06Sep2000
   VRHFIN =Fe:  d7 s1

   TITEL  = PAW_PBE Fe 06Sep2000
   POMASS =   55.847; ZVAL   =    8.000    mass and valenz
   ENMAX  =  267.882; ENMIN  =  200.911 eV

 POTCAR:    PAW_PBE Co 02Aug2007
   VRHFIN =Co: d8 s1

   TITEL  = PAW_PBE Co 02Aug2007
   POMASS =   58.933; ZVAL   =    9.000    mass and valenz
   ENMAX  =  267.968; ENMIN  =  200.976 eV

 POTCAR:    PAW_PBE H 15Jun2001
   VRHFIN =H: ultrasoft test

   TITEL  = PAW_PBE H 15Jun2001
   POMASS =    1.000; ZVAL   =    1.000    mass and valenz
   ENMAX  =  250.000; ENMIN  =  200.000 eV

 Optimization of the real space projectors (new method)

 maximal supplied QI-value         = 14.36
 optimisation between [QCUT,QGAM] = [ 11.92, 23.98] = [ 39.79,161.09] Ry
 Optimized for a Real-space Cutoff    1.49 Angstroem

   l    n(q)    QCUT    max X(q) W(low)/X(q) W(high)/X(q)  e(spline)
   2     10    11.920    66.195    0.79E-04    0.18E-03    0.24E-06
   2     10    11.920    64.643    0.81E-04    0.19E-03    0.24E-06
   0     11    11.920    95.520    0.28E-04    0.54E-04    0.18E-06
   0     11    11.920    63.403    0.27E-04    0.52E-04    0.17E-06
   1     10    11.920    19.961    0.18E-04    0.11E-03    0.23E-06
   1     10    11.920    13.289    0.25E-04    0.87E-04    0.19E-06
 Optimization of the real space projectors (new method)

[...]

   l    n(q)    QCUT    max X(q) W(low)/X(q) W(high)/X(q)  e(spline)
   2      9    11.864    65.824    0.22E-03    0.53E-03    0.26E-06
   2      9    11.864    61.429    0.22E-03    0.53E-03    0.26E-06
   0      9    11.864    56.174    0.21E-03    0.32E-04    0.15E-06
   0      9    11.864    31.263    0.19E-03    0.30E-04    0.14E-06
   1      9    11.864    19.828    0.63E-04    0.30E-03    0.16E-06
   1      9    11.864    15.139    0.49E-04    0.25E-03    0.13E-06
 Optimization of the real space projectors (new method)

 maximal supplied QI-value         = 34.20
 optimisation between [QCUT,QGAM] = [ 11.97, 23.94] = [ 40.13,160.53] Ry
 Optimized for a Real-space Cutoff    1.18 Angstroem

   l    n(q)    QCUT    max X(q) W(low)/X(q) W(high)/X(q)  e(spline)
   0      8    11.971    19.460    0.15E-03    0.31E-03    0.25E-06
   0      8    11.971    12.209    0.13E-03    0.29E-03    0.25E-06
   1      8    11.971     4.655    0.22E-03    0.24E-03    0.21E-06
  PAW_PBE Pt 04Feb2005                  :
  PAW_PBE Cu 22Jun2005                  :
  PAW_PBE Ni 02Aug2007                  :
  PAW_PBE Fe 06Sep2000                  :
  PAW_PBE Co 02Aug2007                  :
  PAW_PBE H 15Jun2001                   :

 POSCAR: 10.56
  positions in cartesian coordinates
 exchange correlation table for  LEXCH =        8
   RHO(1)=    0.500       N(1)  =     2000
   RHO(2)=  100.500       N(2)  =     4000

 ion  position               nearest neighbor table
   1  0.790  0.876  0.316-  49 2.56  59 2.57  19 2.62  61 2.65  33 2.66  60 2.67  29 2.68  28 2.70
                             2 2.71  12 2.83   4 2.83  11 2.92
   2  0.045  0.881  0.316-  79 2.55  77 2.57  60 2.61  30 2.64  22 2.66  28 2.66  52 2.68   1 2.71
                            33 2.73   6 2.77   4 2.82  16 2.89
   3  0.288  0.378  0.320-  64 2.57  39 2.60  33 2.60  68 2.63  31 2.65  19 2.68  43 2.70  30 2.71
                             5 2.78  18 2.78  13 2.81  25 2.82
   4  0.879  0.957  0.424-  16 2.63  17 2.64  12 2.65   6 2.65   9 2.65  11 2.66  60 2.70   2 2.82
                             1 2.83
   5  0.128  0.457  0.427-  12 2.61  13 2.62   7 2.63  10 2.63  25 2.65  16 2.65   3 2.78  39 2.80
                            33 2.80
   6  0.130  0.958  0.422-   8 2.61  14 2.63  10 2.63  16 2.64   4 2.65   9 2.65   2 2.77  52 2.81
                            22 2.89
   7  0.880  0.456  0.423-   9 2.62   5 2.63  10 2.63  15 2.63  12 2.64  27 2.66  39 2.69  29 2.74
                            75 2.76
   8  0.377  0.958  0.417-   6 2.61  43 2.62  10 2.63  14 2.63  61 2.65  13 2.66  52 2.66  27 2.66
                            11 2.67
   9  0.878  0.209  0.422-   7 2.62  15 2.64  17 2.64  10 2.65  60 2.65   4 2.65   6 2.65  75 2.70
                            22 2.81
  10  0.129  0.208  0.423-  13 2.62   7 2.63   8 2.63   5 2.63   6 2.63   9 2.65  43 2.73  39 2.75
                            22 2.83
  11  0.627  0.960  0.431-  81 1.74  17 2.62  13 2.64   4 2.66   8 2.67  27 2.67  12 2.69   1 2.92
                            19 2.92  61 2.94
  12  0.882  0.705  0.424-   5 2.61  16 2.62   7 2.64   4 2.65  27 2.68  11 2.69  33 2.70  29 2.80
                             1 2.83
  13  0.376  0.209  0.427-  10 2.62   5 2.62  11 2.64  25 2.65   8 2.66  17 2.66   3 2.81  43 2.85
                            19 2.85
  14  0.379  0.708  0.426-  27 2.63   6 2.63  25 2.63   8 2.63  16 2.64  15 2.64  44 2.72  30 2.78
                            52 2.86
  15  0.629  0.459  0.424-  27 2.61   7 2.63   9 2.64  14 2.64  25 2.65  17 2.66  44 2.73  75 2.77
                            18 2.77
  16  0.129  0.708  0.426-  12 2.62  25 2.63   4 2.63  14 2.64   6 2.64   5 2.65  30 2.79  33 2.80
                             2 2.89
  17  0.629  0.207  0.425-  11 2.62   4 2.64   9 2.64  13 2.66  25 2.66  15 2.66  60 2.70  18 2.78
                            19 2.88
  18  0.555  0.370  0.318-  67 2.53  75 2.55  60 2.56  68 2.61  26 2.68  44 2.68  19 2.72  30 2.76
                            15 2.77   3 2.78  17 2.78  25 2.89
  19  0.539  0.121  0.316-  59 2.55  80 2.56  68 2.57  43 2.60  61 2.61   1 2.62   3 2.68  18 2.72
                            60 2.74  13 2.85  17 2.88  11 2.92
  20  0.547  0.122  0.038-  57 2.54  37 2.59  48 2.60  62 2.60  47 2.60  34 2.65  45 2.68  63 2.71
                            56 2.75
  21  0.124  0.462  0.127-  36 2.55  47 2.57  40 2.58  58 2.61  42 2.61  64 2.63  31 2.66  69 2.66
                            50 2.67  74 2.69  70 2.69  57 2.69
  22  0.041  0.135  0.313-  65 2.47  55 2.54  75 2.54  77 2.58  43 2.59  39 2.59  60 2.65   2 2.66
                            52 2.74   9 2.81  10 2.83   6 2.89
  23  0.032  0.135  0.034-  70 2.57  62 2.59  40 2.59  41 2.60  76 2.63  45 2.70  24 2.70  35 2.71
                            53 2.86
  24  0.127  0.955  0.132-  79 2.52  55 2.55  53 2.61  35 2.62  77 2.62  58 2.62  73 2.64  70 2.65
                            38 2.67  66 2.68  23 2.70  41 2.74
  25  0.378  0.459  0.426-  16 2.63  14 2.63   5 2.65  13 2.65  15 2.65  17 2.66   3 2.82  30 2.84
                            18 2.89
  26  0.458  0.546  0.220-  73 2.50  74 2.51  51 2.53  79 2.60  64 2.61  30 2.65  68 2.66  18 2.68
                            32 2.69  78 2.71  44 2.72  67 2.74
  27  0.628  0.707  0.430-  81 1.77  15 2.61  14 2.63   7 2.66   8 2.66  11 2.67  12 2.68  44 2.82
                            29 2.85  61 2.90
  28  0.964  0.793  0.218-  66 2.54  50 2.56  58 2.58  77 2.63  42 2.64  64 2.65   2 2.66  79 2.68
                             1 2.70  59 2.70  33 2.74  49 2.75
  29  0.788  0.624  0.319-  44 2.57  42 2.61  32 2.61  61 2.62  39 2.63  75 2.64  49 2.66   1 2.68
                            33 2.68   7 2.74  12 2.80  27 2.85
  30  0.294  0.631  0.319-  79 2.56  64 2.60  44 2.61  52 2.62   2 2.64  26 2.65  33 2.70   3 2.71
                            18 2.76  14 2.78  16 2.79  25 2.84
  31  0.211  0.284  0.223-  57 2.55  70 2.55  65 2.59  43 2.60  55 2.61  80 2.64   3 2.65  21 2.66
                            39 2.66  68 2.67  42 2.71  64 2.72
  32  0.717  0.537  0.221-  69 2.51  54 2.56  51 2.57  65 2.60  42 2.61  29 2.61  67 2.64  75 2.65
                            49 2.68  26 2.69  44 2.75  78 2.78
  33  0.041  0.624  0.321-  42 2.57  39 2.59   3 2.60  64 2.63   1 2.66  29 2.68  12 2.70  30 2.70
                             2 2.73  28 2.74  16 2.80   5 2.80
  34  0.797  0.870  0.037-  50 2.48  66 2.50  36 2.54  48 2.61  35 2.62  63 2.64  71 2.65  20 2.65
                            62 2.72
  35  0.044  0.872  0.035-  58 2.56  36 2.57  66 2.61  24 2.62  34 2.62  72 2.70  23 2.71  62 2.72
                            53 2.74
  36  0.039  0.631  0.035-  58 2.54  34 2.54  21 2.55  35 2.57  50 2.59  40 2.68  71 2.72  72 2.76
                            47 2.78
  37  0.626  0.214  0.133-  68 2.52  59 2.52  67 2.52  41 2.56  51 2.57  56 2.58  66 2.59  20 2.59
                            74 2.60  62 2.60  57 2.64  48 2.76
  38  0.376  0.961  0.131-  80 2.47  53 2.51  55 2.53  78 2.53  63 2.53  45 2.55  54 2.58  48 2.61
                            57 2.62  24 2.67  70 2.69  73 2.69
  39  0.041  0.380  0.320-  33 2.59  42 2.59  22 2.59   3 2.60  29 2.63  75 2.63  31 2.66  65 2.66
                             7 2.69  43 2.71  10 2.75   5 2.80
  40  0.040  0.377  0.033-  69 2.55  21 2.58  23 2.59  76 2.61  70 2.61  45 2.66  71 2.67  36 2.68
                            47 2.81
  41  0.868  0.215  0.131-  67 2.47  65 2.53  76 2.53  77 2.53  37 2.56  51 2.56  62 2.57  69 2.59
                            23 2.60  70 2.61  66 2.63  24 2.74
  42  0.960  0.545  0.225-  33 2.57  39 2.59  50 2.61  32 2.61  29 2.61  21 2.61  28 2.64  64 2.65
                            69 2.68  65 2.69  49 2.70  31 2.71
  43  0.293  0.120  0.319-  52 2.54  55 2.57  22 2.59  31 2.60  19 2.60  61 2.61   8 2.62  80 2.64
                             3 2.70  39 2.71  10 2.73  13 2.85
  44  0.541  0.631  0.322-  61 2.55  52 2.56  29 2.57  30 2.61  78 2.65  18 2.68  26 2.72  14 2.72
                            75 2.73  15 2.73  32 2.75  27 2.82
  45  0.292  0.126  0.037-  38 2.55  57 2.57  70 2.59  40 2.66  53 2.66  20 2.68  23 2.70  47 2.70
                            63 2.74
  46  0.545  0.626  0.042-  73 2.43  51 2.44  54 2.47  71 2.53  53 2.54  76 2.54  63 2.55  72 2.56
                            56 2.56
  47  0.307  0.374  0.039-  74 2.45  57 2.52  56 2.54  21 2.57  20 2.60  72 2.62  45 2.70  36 2.78
                            40 2.81
  48  0.628  0.952  0.133-  49 2.43  80 2.48  59 2.50  63 2.52  50 2.54  54 2.54  20 2.60  34 2.61
                            66 2.61  38 2.61  57 2.66  37 2.76
  49  0.701  0.798  0.223-  48 2.43  54 2.51  80 2.51  78 2.56  61 2.56   1 2.56  50 2.57  59 2.60
                            29 2.66  32 2.68  42 2.70  28 2.75
  50  0.866  0.710  0.128-  71 2.42  34 2.48  48 2.54  28 2.56  49 2.57  54 2.58  36 2.59  42 2.61
                            69 2.64  21 2.67  66 2.71  58 2.84
[...]
     12.89980      6.49745      2.82364         0.028159     -0.010588      0.044704
      9.01343      4.18612      2.81919        -0.053007     -0.058150     -0.106284
      7.80231      8.00567      6.94997        -0.004901     -0.017532     -0.019885
      7.81053      7.92859      0.86888         0.094138      0.064396     -0.026000
     10.31657      6.54831      2.89472        -0.025953      0.035039     -0.062629
      2.46166      0.31661      4.92733        -0.007655     -0.011767     -0.064894
      7.75154      3.52543      0.86333         0.000993     -0.155530      0.480011
      5.10291      1.89984      2.87069        -0.056526      0.053518      0.023462
      5.17349      6.40557      2.77226         0.060258     -0.015527      0.015186
      7.65418      0.39388      4.89233        -0.101269     -0.055891     -0.006897
      9.06312      1.14830      7.10975         0.015351      0.008440     -0.008550
[...]
      9.09183      2.62352      4.93970         0.071856     -0.019546     -0.012151
      6.39598      2.67997      4.92292        -0.022172     -0.022729     -0.029877
     11.64052      4.17844      2.78900         0.065819     -0.031886      0.039524
      2.34972      1.92500      2.86197         0.003527      0.017612      0.025772
     11.59075      5.72177      0.94802        -0.197952      0.138262      0.023012
      6.50379      5.69604      0.91052         0.036891     -0.113426      0.037435
      7.71278      6.45493      2.81038        -0.097440      0.062877      0.153122
      6.43155      4.20716      2.83788         0.068750     -0.093170     -0.164655
     10.36734      3.38451      7.01480        -0.032888     -0.013260     -0.006593
     10.36553      3.54396      0.90454        -0.156163      0.094078      0.025639
     10.23662      0.46679      4.91587        -0.051049      0.031703     -0.019835
      9.06408      7.34028      4.95059         0.075636     -0.056347     -0.028524
      6.48344      7.27349      4.94428         0.025922      0.012716     -0.080241
      5.04827      0.31035      4.87551         0.079006      0.041461      0.061343
     10.89730      7.71681     10.58375         0.030509     -0.014991      0.110614
    total drift:                                0.028090     -0.014534      0.003802

  FREE ENERGIE OF THE ION-ELECTRON SYSTEM (eV)
  free  energy   TOTEN  =      -512.48311211 eV

  energy  without entropy=     -512.48311211  energy(sigma->0) =     -512.48311211

 d Force = 0.1640418E-03[-0.332E-02, 0.365E-02]  d Energy = 0.1817255E-03-0.177E-04
 d Force =-0.1048689E+02[-0.105E+02,-0.105E+02]  d Ewald  =-0.1048708E+02 0.192E-03

 Finite differences progress:
  Degree of freedom:   3/  3
  Displacement:        2/  2
  Total:               6/  6

 SECOND DERIVATIVES (NOT SYMMETRIZED)
              81X         81Y         81Z
 81X    -1.064218   -0.852465    0.925111
 81Y    -0.816746   -1.981683    0.065854
 81Z     0.905724    0.023304   -7.738775

 Eigenvectors and eigenvalues of the dynamical matrix

   1 f  =   43.846410 THz   275.495120 2PiTHz 1462.558768 cm-1   181.334242 meV
             X         Y         Z           dx          dy          dz
     12.969363  8.013819  6.961814            0           0           0
      5.123596  8.059280  6.950790            0           0           0
      5.035515  3.453949  7.039432            0           0           0
     14.342402  8.755760  9.328407            0           0           0
      3.769690  4.182577  9.403951            0           0           0
      6.431531  8.761717  9.284478            0           0           0
     11.704606  4.174729  9.296093            0           0           0
      9.042042  8.761019  9.180786            0           0           0
     10.377076  1.911001  9.279100            0           0           0
      2.463771  1.900317  9.297549            0           0           0
     11.691147  8.778950  9.473961            0           0           0
     13.039192  6.450270  9.323137            0           0           0
      5.079730  1.912081  9.387608            0           0           0
      7.739487  6.478608  9.366307            0           0           0
      9.072120  4.200325  9.320305            0           0           0
      5.100409  6.478653  9.372300            0           0           0
      7.736421  1.894740  9.339788            0           0           0
      7.818235  3.385024  6.988738            0           0           0
      6.327476  1.105410  6.950605            0           0           0
      6.427482  1.119509  0.843789            0           0           0
      3.744575  4.224976  2.802947            0           0           0
      1.142644  1.230252  6.891731            0           0           0
      1.053506  1.233006  0.757137            0           0           0
      6.379696  8.732318  2.895796            0           0           0
      6.417909  4.201345  9.382363            0           0           0
      7.715193  4.989863  4.841883            0           0           0
     10.363909  6.466643  9.470694            0           0           0
     14.366899  7.249662  4.787507            0           0           0
     11.614457  5.708205  7.028333            0           0           0
      6.435092  5.771140  7.020807            0           0           0
      3.728800  2.594869  4.899318            0           0           0
     10.407142  4.909645  4.852938            0           0           0
      3.735101  5.710379  7.052992            0           0           0
     13.010760  7.954144  0.822852            0           0           0
      5.070618  7.976644  0.759159            0           0           0
      3.747252  5.772328  0.772685            0           0           0
      7.739055  1.959228  2.918920            0           0           0
      9.045754  8.788967  2.872263            0           0           0
      2.436057  3.474168  7.046431            0           0           0
      2.407877  3.445951  0.736756            0           0           0
     10.298420  1.968233  2.881385            0           0           0
     13.013514  4.988054  4.944101            0           0           0
      3.727784  1.094577  7.020875            0           0           0
      9.042148  5.771319  7.083282            0           0           0
      3.746828  1.152850  0.819592            0           0           0
      9.065133  5.724714  0.925373            0           0           0
      5.212120  3.416365  0.860857            0           0           0
     11.656252  8.704956  2.917869            0           0           0
     11.621509  7.299740  4.901783            0           0           0
     12.899801  6.497445  2.823641            0           0           0
      9.013433  4.186125  2.819185            0           0           0
      7.802311  8.005666  6.949973            0           0           0
      7.810527  7.928589  0.868881            0           0           0
     10.316566  6.548306  2.894722            0           0           0
      2.461657  0.316610  4.927330            0           0           0
      7.751538  3.525426  0.863327            0           0           0
      5.102914  1.899843  2.870690            0           0           0
      5.173495  6.405568  2.772261            0           0           0
      7.654181  0.393883  4.892331            0           0           0
      9.063115  1.148302  7.109754            0           0           0
[...]
      9.091830  2.623519  4.939700            0           0           0
      6.395982  2.679971  4.922922            0           0           0
     11.640522  4.178437  2.789004            0           0           0
      2.349716  1.924995  2.861968            0           0           0
     11.590753  5.721772  0.948016            0           0           0
      6.503789  5.696041  0.910522            0           0           0
      7.712777  6.454929  2.810380            0           0           0
      6.431551  4.207157  2.837884            0           0           0
     10.367340  3.384511  7.014804            0           0           0
     10.365531  3.543965  0.904545            0           0           0
     10.236619  0.466792  4.915867            0           0           0
      9.064077  7.340275  4.950593            0           0           0
      6.483441  7.273487  4.944283            0           0           0
      5.048274  0.310346  4.875506            0           0           0
     10.897303  7.716809 10.598748    -0.136568   -0.026871    0.990266

[...]

   3 f  =   10.925079 THz    68.644295 2PiTHz  364.421394 cm-1    45.182511 meV
             X         Y         Z           dx          dy          dz
     12.969363  8.013819  6.961814            0           0           0
      5.123596  8.059280  6.950790            0           0           0
      5.035515  3.453949  7.039432            0           0           0
     14.342402  8.755760  9.328407            0           0           0
      3.769690  4.182577  9.403951            0           0           0
      6.431531  8.761717  9.284478            0           0           0
     11.704606  4.174729  9.296093            0           0           0
      9.042042  8.761019  9.180786            0           0           0
     10.377076  1.911001  9.279100            0           0           0
      2.463771  1.900317  9.297549            0           0           0
     11.691147  8.778950  9.473961            0           0           0
     13.039192  6.450270  9.323137            0           0           0
      5.079730  1.912081  9.387608            0           0           0
      7.739487  6.478608  9.366307            0           0           0
      9.072120  4.200325  9.320305            0           0           0
      5.100409  6.478653  9.372300            0           0           0
      7.736421  1.894740  9.339788            0           0           0
      7.818235  3.385024  6.988738            0           0           0
      6.327476  1.105410  6.950605            0           0           0
      6.427482  1.119509  0.843789            0           0           0
      3.744575  4.224976  2.802947            0           0           0
      1.142644  1.230252  6.891731            0           0           0
      1.053506  1.233006  0.757137            0           0           0
      6.379696  8.732318  2.895796            0           0           0
      6.417909  4.201345  9.382363            0           0           0
      7.715193  4.989863  4.841883            0           0           0
     10.363909  6.466643  9.470694            0           0           0
     14.366899  7.249662  4.787507            0           0           0
     11.614457  5.708205  7.028333            0           0           0
      6.435092  5.771140  7.020807            0           0           0
      3.728800  2.594869  4.899318            0           0           0
     10.407142  4.909645  4.852938            0           0           0
      3.735101  5.710379  7.052992            0           0           0
     13.010760  7.954144  0.822852            0           0           0
      5.070618  7.976644  0.759159            0           0           0
      3.747252  5.772328  0.772685            0           0           0
      7.739055  1.959228  2.918920            0           0           0
      9.045754  8.788967  2.872263            0           0           0
      2.436057  3.474168  7.046431            0           0           0
      2.407877  3.445951  0.736756            0           0           0
     10.298420  1.968233  2.881385            0           0           0
     13.013514  4.988054  4.944101            0           0           0
      3.727784  1.094577  7.020875            0           0           0
      9.042148  5.771319  7.083282            0           0           0
      3.746828  1.152850  0.819592            0           0           0
      9.065133  5.724714  0.925373            0           0           0
      5.212120  3.416365  0.860857            0           0           0
     11.656252  8.704956  2.917869            0           0           0
     11.621509  7.299740  4.901783            0           0           0
     12.899801  6.497445  2.823641            0           0           0
      9.013433  4.186125  2.819185            0           0           0
      7.802311  8.005666  6.949973            0           0           0
      7.810527  7.928589  0.868881            0           0           0
     10.316566  6.548306  2.894722            0           0           0
      2.461657  0.316610  4.927330            0           0           0
      7.751538  3.525426  0.863327            0           0           0
      5.102914  1.899843  2.870690            0           0           0
      5.173495  6.405568  2.772261            0           0           0
      7.654181  0.393883  4.892331            0           0           0
      9.063115  1.148302  7.109754            0           0           0
[...]
      9.091830  2.623519  4.939700            0           0           0
      6.395982  2.679971  4.922922            0           0           0
     11.640522  4.178437  2.789004            0           0           0
      2.349716  1.924995  2.861968            0           0           0
     11.590753  5.721772  0.948016            0           0           0
      6.503789  5.696041  0.910522            0           0           0
      7.712777  6.454929  2.810380            0           0           0
      6.431551  4.207157  2.837884            0           0           0
     10.367340  3.384511  7.014804            0           0           0
     10.365531  3.543965  0.904545            0           0           0
     10.236619  0.466792  4.915867            0           0           0
      9.064077  7.340275  4.950593            0           0           0
      6.483441  7.273487  4.944283            0           0           0
      5.048274  0.310346  4.875506            0           0           0
     10.897303  7.716809 10.598748     0.869280   -0.482648    0.106785

 Finite differences POTIM=  1.500000000000000E-002
  LATTYP: Found a hexagonal cell.
 ALAT       =    10.5600004196
 C/A-ratio  =     2.0833332505

  Lattice vectors:

 A1 = (   5.2800002098,  -9.1452286274,   0.0000000000)
 A2 = ( -10.5600004196,   0.0000000000,   0.0000000000)
 A3 = (   0.0000000000,   0.0000000000, -22.0000000000)

Analysis of symmetry for initial positions (statically):
 Subroutine PRICEL returns:
 Original cell was already a primitive cell.

[...]

The static configuration has the point symmetry C_1 .

Analysis of symmetry for dynamics (positions and initial velocities):
 Subroutine PRICEL returns:
 Original cell was already a primitive cell.

[...]

The dynamic configuration has the point symmetry C_1 .

Analysis of constrained symmetry for selective dynamics:
 Subroutine PRICEL returns:
 Original cell was already a primitive cell.

[...]

The constrained configuration has the point symmetry C_1 .

Analysis of structural, dynamic, and magnetic symmetry:
 Subroutine PRICEL returns:
 Original cell was already a primitive cell.

 Routine SETGRP: Setting up the symmetry group for a
 hexagonal supercell.

 Subroutine GETGRP returns: Found  1 space group operations
 (whereof  1 operations were pure point group operations)
 out of a pool of 24 trial point group operations.

The magnetic configuration has the point symmetry C_1 .

 Subroutine INISYM returns: Found  1 space group operations
 (whereof  1 operations are pure point group operations),
 and found     1 'primitive' translations

 KPOINTS: mesh auto

Automatic generation of k-mesh.
Space group operators:
 irot       det(A)        alpha          n_x          n_y          n_z        tau_x        tau_y        tau_z
    1     1.000000     0.000001     1.000000     0.000000     0.000000     0.000000     0.000000     0.000000

 Subroutine IBZKPT returns following result:

 Found      4 irreducible k-points:

 Following reciprocal coordinates:
            Coordinates               Weight
  0.000000  0.000000  0.000000      1.000000
  0.500000  0.000000  0.000000      1.000000
  0.000000  0.500000  0.000000      1.000000
  0.500000  0.500000  0.000000      1.000000

 Following cartesian coordinates:
            Coordinates               Weight
  0.000000  0.000000  0.000000      1.000000
  0.047348 -0.027337  0.000000      1.000000
  0.000000  0.054673  0.000000      1.000000
  0.047348  0.027337  0.000000      1.000000

 TETIRR: Found     12 inequivalent tetrahedra from       24
 BZINTS: Fermi energy:  2.033402;776.000000 electrons
         Band energy:-680.475406;  BLOECHL correction: -0.148746