 vasp.5.4.4.18Apr17-6-g9f103f2a35 (build Nov 30 2020 22:55:02) complex

 executed on             LinuxIFC date 2023.08.07  22:47:07

 INCAR:
 POTCAR:    PAW_PBE Pt 04Feb2005
 POTCAR:    PAW_PBE H 15Jun2001
 POTCAR:    PAW_PBE Pt 04Feb2005
   VRHFIN =Pt: s1d9

   TITEL  = PAW_PBE Pt 04Feb2005
   POMASS =  195.080; ZVAL   =   10.000    mass and valenz
   ENMAX  =  230.283; ENMIN  =  172.712 eV

 POTCAR:    PAW_PBE H 15Jun2001
   VRHFIN =H: ultrasoft test

   TITEL  = PAW_PBE H 15Jun2001
   POMASS =    1.000; ZVAL   =    1.000    mass and valenz
   ENMAX  =  250.000; ENMIN  =  200.000 eV

 Optimization of the real space projectors (new method)

 maximal supplied QI-value         = 14.36
 optimisation between [QCUT,QGAM] = [ 11.92, 23.98] = [ 39.79,161.09] Ry
 Optimized for a Real-space Cutoff    1.49 Angstroem

   l    n(q)    QCUT    max X(q) W(low)/X(q) W(high)/X(q)  e(spline)
   2     10    11.920    66.195    0.79E-04    0.18E-03    0.24E-06
   2     10    11.920    64.643    0.81E-04    0.19E-03    0.24E-06
   0     11    11.920    95.520    0.28E-04    0.54E-04    0.18E-06
   0     11    11.920    63.403    0.27E-04    0.52E-04    0.17E-06
   1     10    11.920    19.961    0.18E-04    0.11E-03    0.23E-06
   1     10    11.920    13.289    0.25E-04    0.87E-04    0.19E-06
 Optimization of the real space projectors (new method)

 maximal supplied QI-value         = 34.20
 optimisation between [QCUT,QGAM] = [ 11.97, 23.94] = [ 40.13,160.53] Ry
 Optimized for a Real-space Cutoff    1.18 Angstroem

   l    n(q)    QCUT    max X(q) W(low)/X(q) W(high)/X(q)  e(spline)
   0      8    11.971    19.460    0.15E-03    0.31E-03    0.25E-06
   0      8    11.971    12.209    0.13E-03    0.29E-03    0.25E-06
   1      8    11.971     4.655    0.22E-03    0.24E-03    0.21E-06
  PAW_PBE Pt 04Feb2005                  :
  PAW_PBE H 15Jun2001                   :

 POSCAR: Pt111\(1\1\1)\(2)
  positions in direct lattice
  velocities in cartesian coordinates
 exchange correlation table for  LEXCH =        8
   RHO(1)=    0.500       N(1)  =     2000
   RHO(2)=  100.500       N(2)  =     4000

 ion  position               nearest neighbor table
   1  1.000  0.000  0.056-   5 2.64   9 2.64  13 2.64  29 2.64  57 2.64  37 2.64  42 2.82  54 2.84
                            14 2.91
   2  0.334  0.169  0.181-  26 2.61  14 2.62   6 2.62  30 2.63  42 2.64  38 2.66  11 2.79   7 2.80
                             9 2.93  21 2.93  13 2.95  15 3.02
   3  0.170  0.334  0.308-  43 2.60   7 2.60  15 2.61  39 2.62  27 2.66  31 2.67   8 2.71   6 2.79
                            14 2.98  48 2.98  10 3.00  12 3.13
   4  0.001  0.002  0.416-  16 2.63   8 2.63  32 2.64  40 2.64  12 2.65  60 2.66   7 2.80  27 2.85
                            63 2.91
   5  1.000  0.250  0.056-   1 2.64  45 2.64  33 2.64   9 2.64  29 2.64  25 2.64  18 2.85  10 2.89
                            14 2.90
   6  0.334  0.417  0.190-   2 2.62  26 2.62  62 2.62  14 2.63  34 2.63  10 2.63   3 2.79  43 2.79
                            15 2.88  49 3.09   9 3.09  45 3.09
   7  0.169  0.087  0.299-   3 2.60  15 2.62  11 2.63  27 2.63  35 2.67  63 2.68  16 2.78   4 2.80
                             2 2.80  14 2.84  42 2.93  12 3.26
   8  0.001  0.251  0.419-   4 2.63  28 2.64  32 2.64  36 2.65  48 2.66  12 2.66   3 2.71  27 2.89
                            31 2.91
   9  0.250  0.250  0.056-  21 2.64  13 2.64   1 2.64  49 2.64  45 2.64   5 2.64  14 2.89   2 2.93
                             6 3.09
  10  0.085  0.416  0.179-  14 2.62  34 2.62   6 2.63  46 2.64  18 2.64  22 2.67  31 2.78  39 2.82
                            45 2.88   5 2.89  33 2.90   3 3.00
  11  0.417  0.086  0.298-  19 2.61   7 2.63  15 2.64  35 2.65  23 2.65  47 2.67   2 2.79  16 2.81
                            20 2.82  30 2.84  38 2.90  24 3.00
  12  0.246  0.247  0.445-  66 1.91  65 1.93   4 2.65   8 2.66  16 2.67  24 2.71  48 2.71  52 2.73
                            15 3.08   3 3.13   7 3.26
  13  0.250  0.000  0.056-  21 2.64   9 2.64  17 2.64   1 2.64  37 2.64  41 2.64  42 2.82  38 2.83
                             2 2.95
  14  0.086  0.169  0.179-   2 2.62  10 2.62   6 2.63  42 2.64  18 2.65  54 2.66  27 2.79   7 2.84
                             9 2.89   5 2.90   1 2.91   3 2.98
  15  0.416  0.334  0.312-   3 2.61  43 2.61   7 2.62  55 2.62  19 2.64  11 2.64  24 2.80   6 2.88
                             2 3.02  26 3.02  52 3.04  12 3.08
  16  0.250  0.002  0.416-   4 2.63  40 2.64  44 2.65  24 2.65  20 2.66  12 2.67   7 2.78  11 2.81
                            35 2.91
  17  0.500  0.000  0.056-  29 2.64  25 2.64  13 2.64  21 2.64  41 2.64  53 2.64  38 2.83  58 2.85
                            30 2.88
  18  0.834  0.167  0.176-  22 2.64  54 2.64  10 2.64  58 2.65  14 2.65  30 2.66  31 2.81  27 2.83
                            23 2.84   5 2.85  29 2.85  25 2.85
  19  0.664  0.333  0.298-  11 2.61  55 2.63  15 2.64  59 2.65  23 2.65  31 2.67  26 2.79  64 2.81
                            28 2.82  30 2.84  22 2.90  24 3.00
  20  0.500  0.000  0.416-  24 2.63  44 2.64  56 2.64  28 2.64  32 2.64  16 2.66  11 2.82  23 2.85
                            47 2.87
  21  0.500  0.250  0.056-  25 2.64  61 2.64   9 2.64  13 2.64  49 2.64  17 2.64  30 2.87  26 2.93
                             2 2.93
  22  0.833  0.416  0.175-  30 2.63  50 2.64  18 2.64  46 2.65  26 2.66  10 2.67  59 2.79  25 2.83
                            61 2.83  33 2.83  31 2.84  19 2.90
  23  0.667  0.083  0.296-  31 2.64  47 2.64  51 2.65  27 2.65  19 2.65  11 2.65  30 2.82  18 2.84
                            58 2.84  20 2.85  28 2.85  32 2.86
  24  0.502  0.249  0.428-  66 1.73  28 2.62  20 2.63  64 2.65  16 2.65  52 2.71  12 2.71  15 2.80
                            19 3.00  11 3.00
  25  0.750  0.250  0.056-  17 2.64  21 2.64  29 2.64  61 2.64  33 2.64   5 2.64  22 2.83  18 2.85
                            30 2.88
  26  0.581  0.416  0.181-   2 2.61  62 2.62   6 2.62  30 2.63  50 2.64  22 2.66  19 2.79  55 2.81
                            49 2.92  21 2.93  61 2.94  15 3.02
  27  0.918  0.084  0.296-  31 2.63   7 2.63  63 2.64  23 2.65   3 2.66  51 2.66  14 2.79  18 2.83
                            54 2.85   4 2.85  32 2.87   8 2.89
  28  0.751  0.251  0.416-  24 2.62  36 2.64  32 2.64  20 2.64   8 2.64  64 2.65  19 2.82  23 2.85
                            31 2.87
  29  0.750  0.000  0.056-  17 2.64  25 2.64   5 2.64  53 2.64   1 2.64  57 2.64  54 2.84  18 2.85
                            58 2.85
  30  0.582  0.168  0.178-   2 2.63  38 2.63  26 2.63  22 2.63  58 2.66  18 2.66  23 2.82  11 2.84
                            19 2.84  21 2.87  17 2.88  25 2.88
  31  0.917  0.333  0.295-  27 2.63  23 2.64  59 2.64  39 2.64   3 2.67  19 2.67  10 2.78  18 2.81
                            36 2.84  22 2.84  28 2.87   8 2.91
  32  0.751  0.001  0.417-  60 2.64   4 2.64  28 2.64  20 2.64   8 2.64  56 2.64  23 2.86  27 2.87
                            51 2.87
  33  1.000  0.500  0.056-  37 2.64  41 2.64   5 2.64  45 2.64  25 2.64  61 2.64  46 2.82  22 2.83
                            10 2.90
  34  0.334  0.665  0.179-  62 2.62  10 2.62   6 2.63  46 2.64  58 2.65  38 2.67  47 2.78  39 2.82
                            45 2.88  53 2.89  41 2.90  43 3.00
  35  0.168  0.834  0.292-  47 2.64  11 2.65  63 2.66  59 2.66   7 2.67  39 2.68  38 2.78  42 2.80
                            46 2.81  40 2.82  44 2.88  16 2.91
  36  1.000  0.501  0.414-  48 2.63  28 2.64   8 2.65  44 2.65  64 2.65  40 2.65  39 2.79  31 2.84
                            59 2.88
  37  1.000  0.750  0.056-  33 2.64  41 2.64  61 2.64  57 2.64  13 2.64   1 2.64  46 2.83  50 2.83
                            42 2.83
  38  0.334  0.917  0.175-  30 2.63  58 2.64  42 2.64  46 2.65   2 2.66  34 2.67  35 2.78  17 2.83
                            13 2.83  41 2.83  47 2.84  11 2.90
  39  0.169  0.581  0.298-  43 2.62   3 2.62  31 2.64  47 2.64  59 2.68  35 2.68  36 2.79  44 2.80
                            34 2.82  10 2.82  46 2.92  48 3.09
  40  1.000  0.751  0.410-  64 2.64  16 2.64   4 2.64  60 2.64  36 2.65  44 2.65  63 2.80  35 2.82
                            59 2.83
  41  0.250  0.750  0.056-  45 2.64  33 2.64  37 2.64  53 2.64  17 2.64  13 2.64  46 2.82  38 2.83
                            34 2.90
  42  0.084  0.918  0.175-  14 2.64  38 2.64  54 2.64   2 2.64  46 2.66  50 2.67  35 2.80  63 2.81
                            13 2.82   1 2.82  37 2.83   7 2.93
  43  0.416  0.580  0.308-   3 2.60  55 2.60  15 2.61  39 2.62  51 2.66  47 2.67  56 2.71   6 2.79
                            48 2.98  62 2.98  34 3.00  52 3.09
  44  0.250  0.751  0.414-  48 2.63  20 2.64  56 2.64  36 2.65  40 2.65  16 2.65  39 2.80  47 2.84
                            35 2.88
  45  0.250  0.500  0.056-  41 2.64  53 2.64   5 2.64   9 2.64  49 2.64  33 2.64  10 2.88  34 2.88
                             6 3.09
  46  0.084  0.666  0.175-  10 2.64  34 2.64  22 2.65  38 2.65  42 2.66  50 2.66  59 2.80  35 2.81
                            41 2.82  33 2.82  37 2.83  39 2.92
  47  0.418  0.833  0.295-  51 2.63  23 2.64  35 2.64  39 2.64  43 2.67  11 2.67  34 2.78  58 2.81
                            44 2.84  38 2.84  20 2.87  56 2.91
  48  0.248  0.504  0.435-  65 1.72  44 2.63  36 2.63  56 2.66   8 2.66  52 2.71  12 2.71  43 2.98
                             3 2.98  39 3.09
  49  0.500  0.500  0.056-  61 2.64  53 2.64  57 2.64  21 2.64   9 2.64  45 2.64  62 2.89  26 2.92
                             6 3.09
  50  0.832  0.666  0.175-  62 2.64  22 2.64  54 2.64  26 2.64  46 2.66  42 2.67  59 2.80  63 2.82
                            61 2.82  57 2.82  37 2.83  55 2.93
  51  0.666  0.832  0.296-  47 2.63  55 2.63  63 2.64  23 2.65  43 2.66  27 2.66  62 2.79  58 2.84
                            54 2.85  60 2.85  32 2.87  56 2.89
  52  0.505  0.505  0.443-  66 2.00  65 2.01  60 2.64  56 2.65  64 2.66  24 2.71  48 2.71  12 2.73
                            15 3.04  43 3.09  55 3.21
  53  0.500  0.750  0.056-  49 2.64  57 2.64  45 2.64  41 2.64  29 2.64  17 2.64  58 2.85  34 2.89
                            62 2.90
  54  0.833  0.917  0.176-  18 2.64  58 2.64  42 2.64  50 2.64  62 2.66  14 2.66  63 2.79   1 2.84
                            57 2.84  29 2.84  27 2.85  51 2.85
  55  0.663  0.581  0.299-  43 2.60  15 2.62  19 2.63  51 2.63  59 2.67  63 2.67  64 2.78  26 2.81
                            60 2.81  62 2.84  50 2.93  52 3.21
  56  0.500  0.750  0.419-  60 2.63  20 2.64  44 2.64  32 2.64  52 2.65  48 2.66  43 2.71  51 2.89
                            47 2.91
  57  0.750  0.750  0.056-  61 2.64  49 2.64  53 2.64  37 2.64   1 2.64  29 2.64  50 2.82  54 2.84
                            62 2.91
  58  0.583  0.916  0.176-  38 2.64  54 2.64  34 2.65  18 2.65  62 2.65  30 2.66  47 2.81  51 2.84
                            23 2.84  53 2.85  29 2.85  17 2.85
  59  0.916  0.582  0.292-  31 2.64  19 2.65  63 2.66  35 2.66  55 2.67  39 2.68  22 2.79  50 2.80
                            46 2.80  40 2.83  36 2.88  64 2.91
  60  0.749  0.750  0.417-  64 2.63  56 2.63  52 2.64  32 2.64  40 2.64   4 2.66  55 2.81  51 2.85
                            63 2.91
[...]
 alpha8   =   16.0000
 k1-k3    =   16.0000    1.3333   -4.0000
 VDW_RADIUS   =   50.2022 A
 VDW_CNRADIUS =   21.1671 A
 Edisp (eV)  -38.70816

 E6    (eV) :   -14.3029
 E8    (eV) :   -24.4053
 % E8        : 63.05

  FORCE on cell =-STRESS in cart. coord.  units (eV):
  Direction    XX          YY          ZZ          XY          YZ          ZX
  Alpha Z  2023.78361  2023.78361  2023.78361
  Ewald  161137.10928161115.42580************   -15.56978    -3.32994    -0.49615
  Hartree172118.14478172111.28019************    -5.38487    -1.94242    -0.41779
  E(xc)   -2861.56247 -2861.66912 -2886.95534    -0.06185    -0.01922    -0.00329
  Local  ************************355166.38457    17.98075     4.86365     0.80828
  n-local   565.88637   564.82768   314.66201    -0.74829    -0.21011     0.50768
  augment  3256.40338  3257.86751  3527.01741     0.89061     0.26265    -0.16307
  Kinetic  9172.37102  9176.24523  9747.74063     2.42190     0.44457    -0.46621
  Fock        0.00000     0.00000     0.00000     0.00000     0.00000     0.00000
  vdW       -53.20619   -53.11809   -28.38669     0.02423    -0.00582     0.00788
  Total      78.54352    78.23336    -0.07368    -0.44730     0.06336    -0.22267
  in kB      65.15270    64.89542    -0.06112    -0.37104     0.05256    -0.18471

 VOLUME and BASIS-vectors are now :
  energy-cutoff  :      550.00
  volume of cell :     1931.47
      direct lattice vectors                 reciprocal lattice vectors
    10.560000420  0.000000000  0.000000000     0.094696966  0.054673319  0.000000000
    -5.280000210  9.145228627  0.000000000     0.000000000  0.109346638  0.000000000
     0.000000000  0.000000000 20.000000000     0.000000000  0.000000000  0.050000000

  length of vectors
    10.560000420 10.560000420 20.000000000     0.109346638  0.109346638  0.050000000

 FORCES acting on ions
    electron-ion (+dipol)            ewald-force                    non-local-force                 convergence-correction
   -.111E+01 -.145E+02 0.231E+04   0.120E+01 0.145E+02 -.231E+04   -.618E-01 0.559E-01 -.233E+00   -.956E-03 -.114E-02 -.299E-04
   0.548E+01 -.218E+02 0.749E+03   -.555E+01 0.221E+02 -.748E+03   0.826E-01 -.261E+00 -.625E+00   -.427E-05 -.192E-03 0.205E-02
   -.662E+01 0.120E+01 -.884E+03   0.697E+01 -.121E+01 0.884E+03   -.386E+00 -.130E-01 0.837E-01   0.583E-03 -.176E-03 0.569E-03
   0.830E+01 0.335E+02 -.225E+04   -.813E+01 -.330E+02 0.225E+04   -.186E+00 -.475E+00 -.796E-01   0.473E-03 0.120E-02 -.169E-04
   -.145E+02 -.630E+01 0.230E+04   0.147E+02 0.640E+01 -.230E+04   -.581E-01 -.157E-01 -.529E-01   -.769E-03 -.424E-03 -.232E-03
   -.602E+01 0.370E+01 0.657E+03   0.601E+01 -.370E+01 -.656E+03   0.105E-01 -.562E-02 -.128E+01   0.123E-03 0.422E-03 0.152E-02
   0.840E+00 -.758E+01 -.783E+03   -.835E+00 0.821E+01 0.783E+03   -.145E-01 -.621E+00 0.359E-01   0.585E-03 0.279E-03 0.491E-03
   0.368E+02 0.142E+02 -.226E+04   -.362E+02 -.141E+02 0.226E+04   -.580E+00 -.995E-01 0.183E+00   0.382E-03 0.108E-03 0.256E-03
   -.512E+01 -.202E+02 0.228E+04   0.518E+01 0.204E+02 -.228E+04   0.599E-02 -.558E-02 0.109E+00   -.361E-03 0.232E-04 -.277E-03
   -.207E+02 0.518E+01 0.776E+03   0.209E+02 -.517E+01 -.775E+03   -.295E+00 -.142E-01 -.445E+00   -.454E-03 0.198E-03 0.926E-03
   0.343E+00 -.213E+01 -.761E+03   -.486E+00 0.255E+01 0.761E+03   0.168E+00 -.426E+00 0.178E+00   -.376E-03 -.189E-04 0.974E-03
   0.263E+02 0.613E+02 -.239E+04   -.269E+02 -.622E+02 0.239E+04   0.533E+00 0.923E+00 0.183E-01   0.201E-03 -.136E-03 -.105E-03
   0.321E+00 -.195E+02 0.231E+04   -.376E+00 0.195E+02 -.231E+04   0.324E-01 0.998E-01 -.221E+00   -.301E-03 -.856E-03 -.301E-03
   -.839E+01 -.183E+02 0.772E+03   0.861E+01 0.185E+02 -.772E+03   -.237E+00 -.233E+00 -.407E+00   -.399E-03 -.662E-03 0.133E-02
   0.591E+01 -.114E+01 -.946E+03   -.602E+01 0.119E+01 0.946E+03   0.149E+00 -.729E-01 0.484E+00   -.202E-03 -.762E-03 0.465E-03
   -.457E+01 0.388E+02 -.224E+04   0.433E+01 -.386E+02 0.224E+04   0.257E+00 -.220E+00 0.471E-01   0.831E-03 0.918E-03 -.230E-03
   0.495E+00 -.469E+01 0.231E+04   -.557E+00 0.471E+01 -.231E+04   0.315E-01 0.184E-01 -.274E+00   0.103E-02 -.437E-03 -.259E-03
   -.384E+01 -.148E+01 0.801E+03   0.395E+01 0.158E+01 -.801E+03   -.126E+00 -.107E+00 -.376E+00   -.698E-04 -.548E-03 0.475E-03
   0.174E+01 0.769E+00 -.761E+03   -.217E+01 -.874E+00 0.761E+03   0.453E+00 0.894E-01 0.174E+00   -.483E-03 -.514E-03 0.663E-04
   -.541E+01 0.117E+02 -.226E+04   0.531E+01 -.116E+02 0.226E+04   0.102E+00 -.125E+00 0.774E-01   -.521E-03 0.197E-03 0.110E-03
   0.151E+02 -.862E+01 0.229E+04   -.153E+02 0.874E+01 -.229E+04   0.529E-01 -.306E-01 0.115E+00   0.691E-03 0.534E-03 -.306E-03
   0.435E+01 0.720E+01 0.810E+03   -.443E+01 -.722E+01 -.810E+03   0.796E-01 -.579E-03 -.249E+00   -.208E-03 0.607E-03 0.523E-03
   0.170E+00 -.271E+00 -.739E+03   -.137E+00 0.252E+00 0.739E+03   -.239E-01 0.178E-01 0.456E+00   -.646E-03 -.228E-03 0.277E-03
   -.507E+02 0.290E+02 -.230E+04   0.506E+02 -.289E+02 0.230E+04   0.826E-01 -.711E-01 -.112E+01   -.308E-03 -.106E-02 -.195E-03
   0.440E+01 0.188E+01 0.231E+04   -.444E+01 -.184E+01 -.231E+04   0.328E-03 -.330E-01 -.278E+00   0.441E-03 0.124E-03 -.207E-03
   0.216E+02 0.654E+01 0.750E+03   -.218E+02 -.660E+01 -.750E+03   0.263E+00 0.476E-01 -.598E+00   0.541E-03 0.851E-03 0.103E-02
   -.143E+01 -.585E+00 -.737E+03   0.154E+01 0.754E+00 0.736E+03   -.134E+00 -.171E+00 0.419E+00   0.459E-03 0.474E-04 -.828E-04
   -.138E+02 -.979E+00 -.226E+04   0.136E+02 0.992E+00 0.227E+04   0.209E+00 -.120E-01 0.841E-01   -.311E-03 -.839E-03 0.338E-03
   0.209E+00 -.432E-02 0.231E+04   -.190E+00 -.126E-01 -.231E+04   0.230E-01 -.853E-02 -.314E+00   0.222E-03 -.653E-03 0.177E-04
   0.655E+01 -.413E+01 0.784E+03   -.681E+01 0.427E+01 -.784E+03   0.280E+00 -.151E+00 -.473E+00   0.487E-03 -.968E-05 0.126E-02
   -.134E+01 -.157E+01 -.724E+03   0.146E+01 0.147E+01 0.723E+03   -.135E+00 0.816E-01 0.398E+00   0.711E-04 0.554E-05 0.682E-04
   0.167E+01 -.123E+01 -.228E+04   -.159E+01 0.119E+01 0.228E+04   -.900E-01 0.400E-01 0.526E-01   -.776E-03 0.549E-03 0.374E-03
   -.109E+02 0.745E+01 0.232E+04   0.109E+02 -.735E+01 -.232E+04   0.292E-01 -.927E-01 -.309E+00   -.717E-03 0.275E-03 -.137E-03
   -.147E+02 0.150E+02 0.775E+03   0.148E+02 -.153E+02 -.775E+03   -.143E+00 0.280E+00 -.462E+00   0.288E-03 0.418E-03 0.966E-03
   0.145E+00 0.447E+00 -.696E+03   -.403E-01 -.316E+00 0.695E+03   -.983E-01 -.120E+00 0.492E+00   0.250E-03 0.632E-03 0.123E-03
   0.260E+02 -.127E+02 -.225E+04   -.256E+02 0.126E+02 0.225E+04   -.370E+00 0.876E-01 0.439E-01   0.864E-03 -.513E-03 0.180E-03
   0.158E+01 -.939E+00 0.232E+04   -.158E+01 0.930E+00 -.232E+04   0.163E-01 -.449E-02 -.387E+00   -.834E-03 -.602E-03 0.386E-04
   -.382E+01 -.705E+01 0.811E+03   0.378E+01 0.713E+01 -.811E+03   0.418E-01 -.728E-01 -.228E+00   0.250E-03 -.374E-03 0.144E-02
   -.182E+01 0.122E+01 -.762E+03   0.236E+01 -.153E+01 0.762E+03   -.523E+00 0.300E+00 0.288E-01   0.341E-03 0.213E-03 0.115E-03
   -.548E+01 0.302E+01 -.222E+04   0.541E+01 -.298E+01 0.222E+04   0.637E-01 -.397E-01 0.211E+00   0.849E-03 0.707E-03 -.187E-03
   -.120E+02 0.574E+01 0.231E+04   0.120E+02 -.584E+01 -.232E+04   0.927E-01 0.199E-01 -.305E+00   -.120E-03 -.330E-03 -.241E-03
   0.493E+00 -.137E+02 0.810E+03   -.470E+00 0.139E+02 -.810E+03   -.224E-01 -.226E+00 -.203E+00   -.786E-03 -.778E-03 0.108E-02
   -.266E+01 0.458E+01 -.882E+03   0.280E+01 -.489E+01 0.882E+03   -.152E+00 0.364E+00 0.104E+00   -.259E-03 -.261E-03 0.116E-03
   0.249E+02 -.165E+02 -.225E+04   -.246E+02 0.162E+02 0.225E+04   -.289E+00 0.309E+00 0.484E-01   0.803E-03 0.682E-03 0.737E-04
   -.211E+02 0.120E+02 0.228E+04   0.213E+02 -.121E+02 -.228E+04   0.396E-01 -.230E-01 0.711E-01   -.207E-03 0.590E-03 -.230E-03
   -.873E+01 0.488E+01 0.812E+03   0.890E+01 -.497E+01 -.812E+03   -.157E+00 0.897E-01 -.198E+00   -.705E-03 -.132E-03 0.654E-03
   0.923E+00 0.193E+01 -.723E+03   -.782E+00 -.198E+01 0.723E+03   -.137E+00 0.678E-01 0.416E+00   -.244E-03 0.280E-03 0.380E-03
   0.553E+02 -.323E+02 -.234E+04   -.552E+02 0.322E+02 0.234E+04   -.862E-01 0.446E-01 -.129E+01   0.172E-03 -.197E-03 0.997E-04
   0.151E+02 0.143E+02 0.228E+04   -.152E+02 -.145E+02 -.228E+04   0.553E-02 -.971E-03 0.111E+00   0.602E-03 0.124E-02 -.105E-03
   0.120E+02 0.615E+01 0.810E+03   -.122E+02 -.628E+01 -.810E+03   0.190E+00 0.136E+00 -.212E+00   -.167E-03 0.290E-03 0.195E-03
   -.440E+00 0.130E+01 -.738E+03   0.347E+00 -.146E+01 0.738E+03   0.833E-01 0.187E+00 0.429E+00   -.343E-03 0.249E-04 -.683E-03
   -.367E+02 -.471E+02 -.238E+04   0.375E+02 0.485E+02 0.238E+04   -.724E+00 -.133E+01 0.393E+00   -.791E-03 -.769E-03 0.204E-03
   -.182E+01 0.157E+02 0.230E+04   0.183E+01 -.160E+02 -.230E+04   -.138E-01 0.603E-01 -.501E-01   0.790E-03 0.463E-03 0.133E-04
   0.424E+01 -.226E+01 0.804E+03   -.418E+01 0.222E+01 -.804E+03   -.733E-01 0.431E-01 -.362E+00   -.179E-03 -.696E-03 0.240E-03
   0.560E+01 0.235E+01 -.781E+03   -.611E+01 -.265E+01 0.781E+03   0.503E+00 0.310E+00 0.100E+00   -.227E-03 -.309E-03 -.866E-03
   0.642E+01 -.398E+02 -.226E+04   -.626E+01 0.393E+02 0.226E+04   -.171E+00 0.529E+00 0.176E+00   -.949E-03 0.242E-03 0.164E-03
   0.122E+02 0.824E+01 0.231E+04   -.122E+02 -.832E+01 -.231E+04   -.790E-01 0.268E-01 -.241E+00   0.161E-03 0.198E-03 0.256E-03
   -.935E+00 0.429E+01 0.801E+03   0.903E+00 -.444E+01 -.801E+03   0.362E-01 0.162E+00 -.379E+00   0.708E-03 -.324E-03 0.552E-03
   -.359E+00 -.310E+00 -.696E+03   0.310E+00 0.162E+00 0.696E+03   0.434E-01 0.140E+00 0.516E+00   0.317E-04 0.118E-03 -.939E-03
   -.262E+02 -.254E+02 -.226E+04   0.258E+02 0.250E+02 0.226E+04   0.333E+00 0.394E+00 -.516E-01   -.722E-03 0.311E-03 0.128E-03
   0.169E+02 0.943E+01 0.231E+04   -.170E+02 -.941E+01 -.231E+04   -.681E-01 -.773E-01 -.237E+00   0.321E-03 0.992E-03 0.674E-04
   0.116E+02 0.159E+02 0.771E+03   -.117E+02 -.162E+02 -.771E+03   0.897E-01 0.330E+00 -.422E+00   0.569E-03 0.795E-03 0.400E-03
   -.182E+00 -.781E-01 -.709E+03   0.568E-01 0.151E+00 0.708E+03   0.118E+00 -.684E-01 0.364E+00   0.288E-03 0.329E-03 -.103E-02
   -.368E+02 -.157E+02 -.224E+04   0.364E+02 0.158E+02 0.224E+04   0.312E+00 -.828E-01 0.524E-01   -.217E-03 -.118E-02 0.491E-04
   0.158E+01 -.226E+01 -.290E+03   -.112E+01 0.207E+01 0.292E+03   -.492E+00 0.173E+00 -.179E+01   -.303E-04 -.304E-04 0.851E-04
   -.655E+01 0.229E+01 -.291E+03   0.632E+01 -.206E+01 0.292E+03   0.221E+00 -.264E+00 -.178E+01   -.777E-05 -.773E-04 0.669E-04
   0.893E+00 0.157E+00 0.940E+01   -.759E-12 -.123E-11 0.506E-11   -.892E+00 -.142E+00 -.946E+01   -.237E-03 -.372E-03 0.141E-01

 POSITION                                       TOTAL-FORCE (eV/Angst)
     10.55998      0.00001      1.11585         0.033720      0.063663     -0.116784
      2.63404      1.54472      3.62437        -0.007736     -0.000900      0.014784
      0.03142      3.05432      6.15156        -0.001083      0.008388      0.023795
      0.00144      0.01739      8.32973        -0.000901      0.000471     -0.012165
      9.23998      2.28632      1.11585         0.138514      0.085205      0.092677
      1.32379      3.80905      3.79957         0.000695     -0.005131      0.026446
      1.32284      0.79969      5.98780         0.008457     -0.005417      0.015452
     -1.31361      2.29415      8.37259        -0.002606      0.004402      0.022887
      1.31998      2.28632      1.11585         0.064317      0.157566      0.183509
     -1.29760      3.80877      3.57106         0.003206      0.005299      0.001622
      3.95192      0.78517      5.95770        -0.001204      0.000197      0.013081
      1.29791      2.25665      8.89966         0.007009      0.014299      0.014896
      2.63998      0.00001      1.11585        -0.024352      0.143895     -0.100913
      0.01719      1.54242      3.58017         0.008853      0.001373      0.003654
      2.63559      3.05294      6.24366         0.000813      0.003282      0.034461
      2.62783      0.01473      8.31258         0.004823     -0.001062      0.018877
      5.27998      0.00001      1.11585        -0.037437      0.026419     -0.042663
      7.92624      1.52674      3.52404        -0.009492     -0.001074      0.000392
      5.25768      3.04668      5.95834         0.003694      0.004196      0.013739
      5.28323      0.00354      8.32021        -0.004466     -0.002462     -0.003796
      3.95998      2.28632      1.11585        -0.162593      0.091751      0.152990
      6.59542      3.80633      3.50098        -0.001998     -0.005611      0.001930
      6.60493      0.76228      5.91453        -0.000878      0.003069     -0.004752
      3.99005      2.27814      8.56438        -0.004027      0.006985      0.033706
      6.59998      2.28632      1.11585        -0.043308      0.016017     -0.036852
      3.93984      3.80703      3.62172         0.005629     -0.003932      0.018911
      9.25157      0.77199      5.91290        -0.006614     -0.000621      0.002626
      6.60335      2.29132      8.32114         0.005041      0.009093     -0.003985
      7.91998      0.00001      1.11585         0.044189     -0.027713     -0.046575
      5.26668      1.53185      3.55654         0.006748      0.002547     -0.001462
      7.93143      3.04280      5.89196        -0.002874      0.003641      0.002736
      7.92520      0.00471      8.33397         0.001579      0.004189      0.011653
      7.91998      4.57263      1.11585         0.086585      0.014224     -0.178434
      0.01332      6.07800      3.57255        -0.007386     -0.001928      0.001840
     -2.62863      7.63016      5.83560        -0.000642      0.002884     -0.000786
      7.91516      4.57862      8.28241        -0.005080     -0.002677     -0.020097
      6.59998      6.85894      1.11585         0.019703     -0.014568     -0.229619
     -1.31790      8.39004      3.50002        -0.002092     -0.005493      0.003353
     -1.28111      5.31501      5.95741        -0.001815      0.002934     -0.010364
      6.59310      6.87007      8.20310        -0.000788      0.005395     -0.013285
     -1.32002      6.85894      1.11585         0.036218     -0.086070     -0.177742
     -3.95769      8.39689      3.49693         0.004875      0.004422     -0.003093
      1.33223      5.30794      6.15315        -0.006531      0.000913      0.021870
     -1.32102      6.86944      8.28210         0.000190      0.006998     -0.015559
     -0.00002      4.57263      1.11585         0.151570     -0.089179      0.165612
     -2.62810      6.09028      3.49013         0.005004      0.003329     -0.004998
      0.01348      7.61819      5.89147        -0.004379      0.000655      0.003438
     -0.04589      4.60690      8.69953         0.006461      0.004029      0.010657
      2.63998      4.57263      1.11585        -0.106994     -0.136038      0.189340
      5.26937      6.08818      3.49698        -0.003890     -0.002519     -0.002778
      2.63958      7.61125      5.91627        -0.001429      0.007307      0.004197
      2.66131      4.62021      8.85100         0.004659      0.006739     -0.027988
      1.31998      6.85894      1.11585        -0.004645     -0.162337      0.097650
      3.96141      8.38253      3.51563        -0.003608     -0.002819     -0.005846
      3.93091      5.31738      5.98773         0.007778     -0.003141      0.013875
      1.32114      6.86151      8.37564        -0.003617      0.004041      0.026321
      3.95998      6.85894      1.11585        -0.044216     -0.060081     -0.113919
      1.32105      8.37713      3.52458        -0.000214      0.002440      0.000237
      6.60025      5.32426      5.83623        -0.002476      0.002260      0.000482
      3.95172      6.86047      8.33710         0.007355      0.002895     -0.014287
      5.27998      4.57263      1.11585        -0.131364     -0.051546     -0.108799
      2.63264      6.07354      3.58235         0.004858      0.000060      0.002343
      5.27458      7.62573      5.85542         0.000578     -0.000227     -0.014021
      5.26880      4.58605      8.31325         0.008741      0.000785      0.022397
      1.05036      3.92828      9.83200        -0.038793     -0.015806      0.017135
      2.88878      2.85657      9.76627        -0.000330     -0.039901      0.025993
    total drift:                                0.001621      0.014960     -0.043900

  FREE ENERGIE OF THE ION-ELECTRON SYSTEM (eV)
  free  energy   TOTEN  =      -412.62507688 eV

  energy  without entropy=     -412.58419415  energy(sigma->0) =     -412.61144930

 Quasi-Newton relaxation of ions (Broydens 2nd method)
  g(Force)  = 0.815E-03   g(Stress)= 0.000E+00

 Reset! Starting new Quasi-Newton update for ions

 reached required accuracy - stopping structural energy minimisation