 vasp.5.4.4.18Apr17-6-g9f103f2a35 (build Nov 30 2020 22:55:02) complex

 executed on             LinuxIFC date 2023.09.10  15:41:08

 INCAR:
 POTCAR:    PAW_PBE Co 02Aug2007
 POTCAR:    PAW_PBE Pt 04Feb2005
 POTCAR:    PAW_PBE H 15Jun2001

 POTCAR:    PAW_PBE Co 02Aug2007
   VRHFIN =Co: d8 s1

   TITEL  = PAW_PBE Co 02Aug2007
   POMASS =   58.933; ZVAL   =    9.000    mass and valenz
   ENMAX  =  267.968; ENMIN  =  200.976 eV

 POTCAR:    PAW_PBE Pt 04Feb2005
   VRHFIN =Pt: s1d9

   TITEL  = PAW_PBE Pt 04Feb2005
   POMASS =  195.080; ZVAL   =   10.000    mass and valenz
   ENMAX  =  230.283; ENMIN  =  172.712 eV

 POTCAR:    PAW_PBE H 15Jun2001
   VRHFIN =H: ultrasoft test

   TITEL  = PAW_PBE H 15Jun2001
   POMASS =    1.000; ZVAL   =    1.000    mass and valenz
   ENMAX  =  250.000; ENMIN  =  200.000 eV

 Optimization of the real space projectors (new method)

 maximal supplied QI-value         = 16.25
 optimisation between [QCUT,QGAM] = [ 11.86, 23.89] = [ 39.41,159.82] Ry
 Optimized for a Real-space Cutoff    1.33 Angstroem

   l    n(q)    QCUT    max X(q) W(low)/X(q) W(high)/X(q)  e(spline)
   2      9    11.864    65.824    0.22E-03    0.53E-03    0.26E-06
   2      9    11.864    61.429    0.22E-03    0.53E-03    0.26E-06
   0      9    11.864    56.174    0.21E-03    0.32E-04    0.15E-06
   0      9    11.864    31.263    0.19E-03    0.30E-04    0.14E-06
   1      9    11.864    19.828    0.63E-04    0.30E-03    0.16E-06
   1      9    11.864    15.139    0.49E-04    0.25E-03    0.13E-06
 Optimization of the real space projectors (new method)

[...]

   l    n(q)    QCUT    max X(q) W(low)/X(q) W(high)/X(q)  e(spline)
   2     10    11.920    66.195    0.79E-04    0.18E-03    0.24E-06
   2     10    11.920    64.643    0.81E-04    0.19E-03    0.24E-06
   0     11    11.920    95.520    0.28E-04    0.54E-04    0.18E-06
   0     11    11.920    63.403    0.27E-04    0.52E-04    0.17E-06
   1     10    11.920    19.961    0.18E-04    0.11E-03    0.23E-06
   1     10    11.920    13.289    0.25E-04    0.87E-04    0.19E-06
 Optimization of the real space projectors (new method)

 maximal supplied QI-value         = 34.20
 optimisation between [QCUT,QGAM] = [ 11.97, 23.94] = [ 40.13,160.53] Ry
 Optimized for a Real-space Cutoff    1.18 Angstroem

   l    n(q)    QCUT    max X(q) W(low)/X(q) W(high)/X(q)  e(spline)
   0      8    11.971    19.460    0.15E-03    0.31E-03    0.25E-06
   0      8    11.971    12.209    0.13E-03    0.29E-03    0.25E-06
   1      8    11.971     4.655    0.22E-03    0.24E-03    0.21E-06
  PAW_PBE Co 02Aug2007                  :
  PAW_PBE Pt 04Feb2005                  :
  PAW_PBE H 15Jun2001                   :

 POSCAR: PtM\(2)
  positions in cartesian coordinates
 exchange correlation table for  LEXCH =        8
   RHO(1)=    0.500       N(1)  =     2000
   RHO(2)=  100.500       N(2)  =     4000

 ion  position               nearest neighbor table
   1  0.786  0.869  0.311-  55 2.41  39 2.41  20 2.42  73 2.62  72 2.63   2 2.63  56 2.63  65 2.64
                            40 2.64   3 2.64  29 2.64  57 2.64
   2  0.035  0.870  0.311-  49 2.41  39 2.42  52 2.42  77 2.62  56 2.63  65 2.63   1 2.63  33 2.63
                            67 2.63   3 2.64  23 2.64  41 2.66
   3  0.035  0.619  0.311-  39 2.41  60 2.41  12 2.42  73 2.62  77 2.62  66 2.63  15 2.64  40 2.64
                             1 2.64   9 2.64   2 2.64  41 2.66
   4  0.787  0.868  0.051-  21 2.41  62 2.41  19 2.41   5 2.64   6 2.64  42 2.64  59 2.64  58 2.64
                            30 2.64
   5  0.037  0.868  0.051-  54 2.41  35 2.41  62 2.41  58 2.64  24 2.64   4 2.64  43 2.64   6 2.64
                            34 2.64
   6  0.037  0.618  0.051-  32 2.41  54 2.41  21 2.41  43 2.64  10 2.64  18 2.64   4 2.64  42 2.64
                             5 2.64
   7  0.620  0.202  0.136-  28 2.41  30 2.41  58 2.41  55 2.49  63 2.50  64 2.51  62 2.64  11 2.64
                            37 2.64  19 2.64  45 2.64  22 2.64
   8  0.370  0.952  0.136-  16 2.41  24 2.41  59 2.41  53 2.49  26 2.50  50 2.51  38 2.64  25 2.64
                            44 2.64  19 2.64  37 2.64  35 2.64
   9  0.035  0.369  0.311-  61 2.42  12 2.42  46 2.42  68 2.62  66 2.62  15 2.62  71 2.63  13 2.64
                            40 2.64  33 2.64   3 2.64  47 2.66
  10  0.037  0.368  0.051-  38 2.41  32 2.41  31 2.41   6 2.64  48 2.64  34 2.64  18 2.64  42 2.64
                            16 2.64
  11  0.870  0.202  0.136-  48 2.41  58 2.41  34 2.41  49 2.49  61 2.50  63 2.51  35 2.64   7 2.64
                            22 2.64  38 2.64  31 2.64  62 2.64
  12  0.952  0.536  0.226-  40 2.42   3 2.42   9 2.42  21 2.49  31 2.49  32 2.50  20 2.64  39 2.64
                            61 2.64  46 2.64  51 2.65  60 2.66
  13  0.285  0.119  0.311-  26 2.42  53 2.42  46 2.42  69 2.61  74 2.62  15 2.62  71 2.63  57 2.64
                             9 2.64  33 2.64  29 2.64  23 2.66
  14  0.535  0.619  0.313-  50 2.43  36 2.43  51 2.44  23 2.62  41 2.62  47 2.62  27 2.62  57 2.64
                            40 2.65  80 2.68  76 2.70  75 2.71
  15  0.284  0.368  0.311-  46 2.41  60 2.41  64 2.42   9 2.62  13 2.62  74 2.62  66 2.63   3 2.64
                            29 2.64  79 2.67  27 2.67  41 2.67
  16  0.287  0.118  0.051-   8 2.41  37 2.41  38 2.41  18 2.64  30 2.64  59 2.64  34 2.64  10 2.64
                            24 2.64
  17  0.536  0.618  0.051-  22 2.41  25 2.41  44 2.41  43 2.64  28 2.64  24 2.64  59 2.64  48 2.64
                            42 2.64
  18  0.287  0.368  0.051-  37 2.41  45 2.41  32 2.41  16 2.64   6 2.64  43 2.64  10 2.64  28 2.64
                            30 2.64
  19  0.620  0.952  0.136-  30 2.41  59 2.41   4 2.41  20 2.50  55 2.50  53 2.50  62 2.64  21 2.64
                            37 2.64   7 2.64  25 2.64   8 2.64
  20  0.702  0.786  0.226-  40 2.41   1 2.42  57 2.42  19 2.50  25 2.50  21 2.50  53 2.63  12 2.64
                            51 2.64  50 2.64  55 2.64  39 2.65
  21  0.870  0.702  0.136-   4 2.41  42 2.41   6 2.41  12 2.49  39 2.50  20 2.50  31 2.64  19 2.64
                            62 2.64  25 2.64  32 2.64  54 2.64
  22  0.620  0.452  0.136-  17 2.41  28 2.41  48 2.41  63 2.50  51 2.50  36 2.51  31 2.64  25 2.64
                            45 2.64  11 2.64  44 2.64   7 2.64
  23  0.286  0.867  0.312-  50 2.42  52 2.42  26 2.43  41 2.61  14 2.62  69 2.62  67 2.63  57 2.64
                             2 2.64  13 2.66  33 2.66  75 2.68
  24  0.286  0.868  0.051-  44 2.41   8 2.41  35 2.41  34 2.64   5 2.64  17 2.64  43 2.64  59 2.64
                            16 2.64
  25  0.620  0.702  0.136-  59 2.41  17 2.41  42 2.41  20 2.50  51 2.50  50 2.51  22 2.64  31 2.64
                             8 2.64  44 2.64  19 2.64  21 2.64
  26  0.203  0.034  0.226-  13 2.42  33 2.42  23 2.43  35 2.49   8 2.50  38 2.51  52 2.63  49 2.64
                            50 2.64  53 2.64  46 2.65  61 2.66
  27  0.535  0.371  0.313-  36 2.42  63 2.43  64 2.43  78 2.61  47 2.62  41 2.62  14 2.62  29 2.66
                            56 2.66  15 2.67  79 2.67  76 2.70
  28  0.537  0.368  0.051-   7 2.41  22 2.41  45 2.41  30 2.64  58 2.64  17 2.64  18 2.64  48 2.64
                            43 2.64
  29  0.535  0.119  0.311-  64 2.41  55 2.42  53 2.42  72 2.62  78 2.62  74 2.63  57 2.64  15 2.64
                             1 2.64  56 2.64  13 2.64  27 2.66
  30  0.537  0.118  0.051-  19 2.41   7 2.41  37 2.41  28 2.64  16 2.64  59 2.64  58 2.64  18 2.64
                             4 2.64
  31  0.870  0.452  0.136-  42 2.41  48 2.41  10 2.41  12 2.49  61 2.49  51 2.52  22 2.64  21 2.64
                            25 2.64  11 2.64  32 2.64  38 2.64
  32  0.120  0.452  0.136-   6 2.41  10 2.41  18 2.41  46 2.49  12 2.50  60 2.51  38 2.64  54 2.64
                            21 2.64  37 2.64  45 2.64  31 2.64
  33  0.035  0.119  0.311-  49 2.42  61 2.42  26 2.42  67 2.62  70 2.63  71 2.63   2 2.63  56 2.63
                            13 2.64   9 2.64  23 2.66  47 2.66
  34  0.037  0.118  0.051-  35 2.41  38 2.41  11 2.41  24 2.64  10 2.64  48 2.64  16 2.64  58 2.64
                             5 2.64
  35  0.120  0.952  0.136-  34 2.41   5 2.41  24 2.41  26 2.49  49 2.50  52 2.51  11 2.64  38 2.64
                            54 2.64  44 2.64   8 2.64  62 2.64
  36  0.453  0.536  0.227-  27 2.42  41 2.42  14 2.43  44 2.50  22 2.51  45 2.51  51 2.62  50 2.62
                            63 2.63  52 2.63  60 2.63  64 2.63
  37  0.370  0.202  0.136-  18 2.41  16 2.41  30 2.41  53 2.49  46 2.50  64 2.51   7 2.64  19 2.64
                             8 2.64  45 2.64  32 2.64  38 2.64
  38  0.120  0.202  0.136-  10 2.41  34 2.41  16 2.41  46 2.48  26 2.51  61 2.51   8 2.64  35 2.64
                            32 2.64  11 2.64  37 2.64  31 2.64
  39  0.952  0.786  0.226-   1 2.41   3 2.41   2 2.42  62 2.49  21 2.50  54 2.50  52 2.64  12 2.64
                            49 2.64  60 2.64  55 2.64  20 2.65
  40  0.785  0.619  0.311-  20 2.41  12 2.42  51 2.42  73 2.63  68 2.63   3 2.64   9 2.64   1 2.64
                            57 2.64  47 2.64  14 2.65  80 2.67
  41  0.287  0.619  0.313-  36 2.42  52 2.43  60 2.43  23 2.61  77 2.62  27 2.62  14 2.62   3 2.66
                             2 2.66  79 2.67  15 2.67  75 2.70
  42  0.787  0.618  0.051-  31 2.41  21 2.41  25 2.41  48 2.64  10 2.64   4 2.64   6 2.64  59 2.64
                            17 2.64
  43  0.287  0.618  0.051-  45 2.41  44 2.41  54 2.41   6 2.64  18 2.64  17 2.64   5 2.64  24 2.64
                            28 2.64
  44  0.370  0.702  0.136-  24 2.41  43 2.41  17 2.41  50 2.50  36 2.50  52 2.51  54 2.64  25 2.64
                            45 2.64   8 2.64  35 2.64  22 2.64
  45  0.370  0.452  0.136-  43 2.41  18 2.41  28 2.41  64 2.49  60 2.50  36 2.51  22 2.64  44 2.64
                            37 2.64   7 2.64  54 2.64  32 2.64
  46  0.202  0.285  0.225-  15 2.41  13 2.42   9 2.42  38 2.48  32 2.49  37 2.50  53 2.64  12 2.64
                            26 2.65  61 2.65  64 2.65  60 2.66
  47  0.783  0.371  0.312-  51 2.42  63 2.42  61 2.44  27 2.62  68 2.62  14 2.62  70 2.62  56 2.64
                            40 2.64   9 2.66  33 2.66  76 2.68
  48  0.787  0.368  0.051-  11 2.41  31 2.41  22 2.41  10 2.64  42 2.64  34 2.64  58 2.64  28 2.64
                            17 2.64
  49  0.952  0.036  0.226-   2 2.41  33 2.42  56 2.42  11 2.49  62 2.50  35 2.50  26 2.64  61 2.64
                            39 2.64  55 2.64  52 2.65  63 2.65
  50  0.453  0.784  0.226-  57 2.42  23 2.42  14 2.43  44 2.50  25 2.51   8 2.51  51 2.62  36 2.62
                            52 2.64  26 2.64  20 2.64  53 2.65
  51  0.701  0.536  0.226-  40 2.42  47 2.42  14 2.44  22 2.50  25 2.50  31 2.52  50 2.62  36 2.62
                            63 2.64  20 2.64  61 2.64  12 2.65
  52  0.203  0.785  0.226-   2 2.42  23 2.42  41 2.43  54 2.50  35 2.51  44 2.51  60 2.62  36 2.63
                            26 2.63  50 2.64  39 2.64  49 2.65
  53  0.452  0.035  0.226-  57 2.41  29 2.42  13 2.42   8 2.49  37 2.49  19 2.50  20 2.63  55 2.64
                            26 2.64  46 2.64  50 2.65  64 2.66
[...]
      1.011385  1.080376  1.128547            0           0           0
      6.287836  8.703604  2.991992            0           0           0
      7.610239  4.903003  4.985645            0           0           0
      4.969213  1.843763  2.992524            0           0           0
      2.328654  1.843751  2.992483            0           0           0
     14.204281  7.184000  4.967744            0           0           0
     11.564823  5.665230  6.846417            0           0           0
      6.298847  5.660515  6.875846            0           0           0
     11.569967  5.652273  1.127480            0           0           0
      6.288786  5.652014  1.128720            0           0           0
      7.607949  6.417220  2.991241            0           0           0
      6.289230  4.130398  2.992423            0           0           0
      3.638911  2.609257  4.960066            0           0           0
     10.221810  3.388702  6.865814            0           0           0
     10.251112  3.366005  1.127934            0           0           0
     10.244776  0.326457  4.966651            0           0           0
      8.919584  7.171922  4.982427            0           0           0
     10.229793  4.903797  4.982840            0           0           0
      6.283935  7.176629  4.978889            0           0           0
      4.962353  0.321085  4.968968            0           0           0
      4.968348  6.417007  2.992234            0           0           0
      7.601767  0.328011  4.968681            0           0           0
      8.924824  1.087028  6.843059            0           0           0
     10.243667  7.951834  6.846771            0           0           0
      8.931018  1.079620  1.127737            0           0           0
     10.250101  7.939278  1.127458            0           0           0
      4.977697  4.902461  4.977608            0           0           0
[...]
     11.575374  4.132352  8.980928            0           0           0
      8.918680  8.732838  8.981451            0           0           0
     10.244944  1.850991  8.989908            0           0           0
      2.318970  1.855406  8.986711            0           0           0
     11.570919  8.724796  8.978050            0           0           0
     12.894565  6.432948  8.978220            0           0           0
      4.950512  1.848513  8.979201            0           0           0
      7.584590  6.458770  9.108863            0           0           0
      8.938122  4.115033  9.109265            0           0           0
      4.949251  6.440065  8.977648            0           0           0
      7.604672  1.840983  8.977739            0           0           0
      6.231087  4.113947  9.047095            0           0           0
     10.294174  6.460027  9.050796            0           0           0
      7.394608  4.790768 10.111774     0.496581    0.312135   -0.336181
      9.147502  5.791780 10.117955     0.537282    0.330398    0.380955

   5 f/i=    5.907859 THz    37.120173 2PiTHz  197.064957 cm-1    24.432949 meV
             X         Y         Z           dx          dy          dz
     12.886988  7.950932  6.837150            0           0           0
      4.958026  7.954997  6.844507            0           0           0
      3.643533  5.661665  6.841081            0           0           0
     12.890693  7.937732  1.127411            0           0           0
      4.969706  7.939116  1.128531            0           0           0
      3.649957  5.651776  1.129190            0           0           0
      7.608781  1.843362  2.991653            0           0           0
      8.928348  8.703137  2.991182            0           0           0
      2.318793  3.375180  6.843988            0           0           0
      2.330136  3.366551  1.129481            0           0           0
     10.248209  1.844221  2.991308            0           0           0
     12.878399  4.900464  4.969138            0           0           0
      3.638898  1.088764  6.844292            0           0           0
      8.919326  5.662876  6.891280            0           0           0
      4.939923  3.364616  6.837125            0           0           0
      3.651346  1.080639  1.128571            0           0           0
      8.928223  5.652563  1.127107            0           0           0
      4.969471  3.366256  1.129791            0           0           0
     11.568373  8.702678  2.990806            0           0           0
     11.558983  7.184029  4.970859            0           0           0
     12.887726  6.416690  2.991438            0           0           0
      8.928769  4.130875  2.990941            0           0           0
      7.601625  7.926240  6.865982            0           0           0
      7.608717  7.939412  1.128257            0           0           0
     10.247638  6.416886  2.990068            0           0           0
      2.320980  0.312046  4.974964            0           0           0
      7.606730  3.393433  6.875078            0           0           0
      7.610141  3.365160  1.128439            0           0           0
      6.281887  1.091513  6.842068            0           0           0
      6.290737  1.079887  1.128229            0           0           0
     11.567580  4.131448  2.992071            0           0           0
      3.648521  4.130274  2.993297            0           0           0
      0.998469  1.088170  6.846096            0           0           0
      1.011385  1.080376  1.128547            0           0           0
      6.287836  8.703604  2.991992            0           0           0
      7.610239  4.903003  4.985645            0           0           0
      4.969213  1.843763  2.992524            0           0           0
      2.328654  1.843751  2.992483            0           0           0
     14.204281  7.184000  4.967744            0           0           0
     11.564823  5.665230  6.846417            0           0           0
      6.298847  5.660515  6.875846            0           0           0
     11.569967  5.652273  1.127480            0           0           0
      6.288786  5.652014  1.128720            0           0           0
      7.607949  6.417220  2.991241            0           0           0
      6.289230  4.130398  2.992423            0           0           0
      3.638911  2.609257  4.960066            0           0           0
     10.221810  3.388702  6.865814            0           0           0
     10.251112  3.366005  1.127934            0           0           0
     10.244776  0.326457  4.966651            0           0           0
      8.919584  7.171922  4.982427            0           0           0
     10.229793  4.903797  4.982840            0           0           0
      6.283935  7.176629  4.978889            0           0           0
      4.962353  0.321085  4.968968            0           0           0
      4.968348  6.417007  2.992234            0           0           0
      7.601767  0.328011  4.968681            0           0           0
      8.924824  1.087028  6.843059            0           0           0
     10.243667  7.951834  6.846771            0           0           0
      8.931018  1.079620  1.127737            0           0           0
     10.250101  7.939278  1.127458            0           0           0
      4.977697  4.902461  4.977608            0           0           0
[...]
     11.575374  4.132352  8.980928            0           0           0
      8.918680  8.732838  8.981451            0           0           0
     10.244944  1.850991  8.989908            0           0           0
      2.318970  1.855406  8.986711            0           0           0
     11.570919  8.724796  8.978050            0           0           0
     12.894565  6.432948  8.978220            0           0           0
      4.950512  1.848513  8.979201            0           0           0
      7.584590  6.458770  9.108863            0           0           0
      8.938122  4.115033  9.109265            0           0           0
      4.949251  6.440065  8.977648            0           0           0
      7.604672  1.840983  8.977739            0           0           0
      6.231087  4.113947  9.047095            0           0           0
     10.294174  6.460027  9.050796            0           0           0
      7.394608  4.790768 10.111774     0.465082   -0.763911   -0.010627
      9.147502  5.791780 10.117955     0.234825   -0.380526    0.009126

   6 f/i=    8.418309 THz    52.893797 2PiTHz  280.804560 cm-1    34.815341 meV
             X         Y         Z           dx          dy          dz
     12.886988  7.950932  6.837150            0           0           0
      4.958026  7.954997  6.844507            0           0           0
      3.643533  5.661665  6.841081            0           0           0
     12.890693  7.937732  1.127411            0           0           0
      4.969706  7.939116  1.128531            0           0           0
      3.649957  5.651776  1.129190            0           0           0
      7.608781  1.843362  2.991653            0           0           0
      8.928348  8.703137  2.991182            0           0           0
      2.318793  3.375180  6.843988            0           0           0
      2.330136  3.366551  1.129481            0           0           0
     10.248209  1.844221  2.991308            0           0           0
     12.878399  4.900464  4.969138            0           0           0
      3.638898  1.088764  6.844292            0           0           0
      8.919326  5.662876  6.891280            0           0           0
      4.939923  3.364616  6.837125            0           0           0
      3.651346  1.080639  1.128571            0           0           0
      8.928223  5.652563  1.127107            0           0           0
      4.969471  3.366256  1.129791            0           0           0
     11.568373  8.702678  2.990806            0           0           0
     11.558983  7.184029  4.970859            0           0           0
     12.887726  6.416690  2.991438            0           0           0
      8.928769  4.130875  2.990941            0           0           0
      7.601625  7.926240  6.865982            0           0           0
      7.608717  7.939412  1.128257            0           0           0
     10.247638  6.416886  2.990068            0           0           0
      2.320980  0.312046  4.974964            0           0           0
      7.606730  3.393433  6.875078            0           0           0
      7.610141  3.365160  1.128439            0           0           0
      6.281887  1.091513  6.842068            0           0           0
      6.290737  1.079887  1.128229            0           0           0
     11.567580  4.131448  2.992071            0           0           0
      3.648521  4.130274  2.993297            0           0           0
      0.998469  1.088170  6.846096            0           0           0
      1.011385  1.080376  1.128547            0           0           0
      6.287836  8.703604  2.991992            0           0           0
      7.610239  4.903003  4.985645            0           0           0
      4.969213  1.843763  2.992524            0           0           0
      2.328654  1.843751  2.992483            0           0           0
     14.204281  7.184000  4.967744            0           0           0
     11.564823  5.665230  6.846417            0           0           0
      6.298847  5.660515  6.875846            0           0           0
     11.569967  5.652273  1.127480            0           0           0
      6.288786  5.652014  1.128720            0           0           0
      7.607949  6.417220  2.991241            0           0           0
      6.289230  4.130398  2.992423            0           0           0
      3.638911  2.609257  4.960066            0           0           0
     10.221810  3.388702  6.865814            0           0           0
     10.251112  3.366005  1.127934            0           0           0
     10.244776  0.326457  4.966651            0           0           0
      8.919584  7.171922  4.982427            0           0           0
     10.229793  4.903797  4.982840            0           0           0
      6.283935  7.176629  4.978889            0           0           0
      4.962353  0.321085  4.968968            0           0           0
      4.968348  6.417007  2.992234            0           0           0
      7.601767  0.328011  4.968681            0           0           0
      8.924824  1.087028  6.843059            0           0           0
     10.243667  7.951834  6.846771            0           0           0
      8.931018  1.079620  1.127737            0           0           0
     10.250101  7.939278  1.127458            0           0           0
      4.977697  4.902461  4.977608            0           0           0
[...]
     11.575374  4.132352  8.980928            0           0           0
      8.918680  8.732838  8.981451            0           0           0
     10.244944  1.850991  8.989908            0           0           0
      2.318970  1.855406  8.986711            0           0           0
     11.570919  8.724796  8.978050            0           0           0
     12.894565  6.432948  8.978220            0           0           0
      4.950512  1.848513  8.979201            0           0           0
      7.584590  6.458770  9.108863            0           0           0
      8.938122  4.115033  9.109265            0           0           0
      4.949251  6.440065  8.977648            0           0           0
      7.604672  1.840983  8.977739            0           0           0
      6.231087  4.113947  9.047095            0           0           0
     10.294174  6.460027  9.050796            0           0           0
      7.394608  4.790768 10.111774    -0.226283    0.385727    0.001822
      9.147502  5.791780 10.117955     0.454254   -0.770452    0.008073

 Finite differences POTIM=  1.500000000000000E-002
  LATTYP: Found a hexagonal cell.
 ALAT       =    10.5600004196
 C/A-ratio  =     2.0833332505

  Lattice vectors:

 A1 = (   5.2800002098,  -9.1452286274,   0.0000000000)
 A2 = ( -10.5600004196,   0.0000000000,   0.0000000000)
 A3 = (   0.0000000000,   0.0000000000, -22.0000000000)

Analysis of symmetry for initial positions (statically):
 Subroutine PRICEL returns:
 Original cell was already a primitive cell.

[...]

The static configuration has the point symmetry C_1 .

Analysis of symmetry for dynamics (positions and initial velocities):
 Subroutine PRICEL returns:
 Original cell was already a primitive cell.

[...]

The dynamic configuration has the point symmetry C_1 .

Analysis of constrained symmetry for selective dynamics:
 Subroutine PRICEL returns:
 Original cell was already a primitive cell.

[...]

The constrained configuration has the point symmetry C_1 .

Analysis of structural, dynamic, and magnetic symmetry:
 Subroutine PRICEL returns:
 Original cell was already a primitive cell.

 Routine SETGRP: Setting up the symmetry group for a
 hexagonal supercell.

 Subroutine GETGRP returns: Found  1 space group operations
 (whereof  1 operations were pure point group operations)
 out of a pool of 24 trial point group operations.

The magnetic configuration has the point symmetry C_1 .

 Subroutine INISYM returns: Found  1 space group operations
 (whereof  1 operations are pure point group operations),
 and found     1 'primitive' translations

 KPOINTS: mesh auto

Automatic generation of k-mesh.
Space group operators:
 irot       det(A)        alpha          n_x          n_y          n_z        tau_x        tau_y        tau_z
    1     1.000000     0.000001     1.000000     0.000000     0.000000     0.000000     0.000000     0.000000

 Subroutine IBZKPT returns following result:

 Found      4 irreducible k-points:

 Following reciprocal coordinates:
            Coordinates               Weight
  0.000000  0.000000  0.000000      1.000000
  0.500000  0.000000  0.000000      1.000000
  0.000000  0.500000  0.000000      1.000000
  0.500000  0.500000  0.000000      1.000000

 Following cartesian coordinates:
            Coordinates               Weight
  0.000000  0.000000  0.000000      1.000000
  0.047348 -0.027337  0.000000      1.000000
  0.000000  0.054673  0.000000      1.000000
  0.047348  0.027337  0.000000      1.000000

 TETIRR: Found     12 inequivalent tetrahedra from       24
 BZINTS: Fermi energy:  2.037957;738.000000 electrons
         Band energy:-493.594057;  BLOECHL correction: -0.343679