 vasp.5.4.4.18Apr17-6-g9f103f2a35 (build Nov 30 2020 22:55:02) complex

 executed on             LinuxIFC date 2023.06.01  22:10:44

 INCAR:
 POTCAR:    PAW_PBE Pt 04Feb2005
 POTCAR:    PAW_PBE Fe 06Sep2000
 POTCAR:    PAW_PBE Co 02Aug2007
 POTCAR:    PAW_PBE Cu 22Jun2005
 POTCAR:    PAW_PBE Ni 02Aug2007
 POTCAR:    PAW_PBE Pt 04Feb2005
   VRHFIN =Pt: s1d9

   TITEL  = PAW_PBE Pt 04Feb2005
   POMASS =  195.080; ZVAL   =   10.000    mass and valenz
   ENMAX  =  230.283; ENMIN  =  172.712 eV

 POTCAR:    PAW_PBE Fe 06Sep2000
   VRHFIN =Fe:  d7 s1

   TITEL  = PAW_PBE Fe 06Sep2000
   POMASS =   55.847; ZVAL   =    8.000    mass and valenz
   ENMAX  =  267.882; ENMIN  =  200.911 eV

 POTCAR:    PAW_PBE Co 02Aug2007
   VRHFIN =Co: d8 s1

   TITEL  = PAW_PBE Co 02Aug2007
   POMASS =   58.933; ZVAL   =    9.000    mass and valenz
   ENMAX  =  267.968; ENMIN  =  200.976 eV

 POTCAR:    PAW_PBE Cu 22Jun2005
   VRHFIN =Cu: d10 p1

   TITEL  = PAW_PBE Cu 22Jun2005
   POMASS =   63.546; ZVAL   =   11.000    mass and valenz
   ENMAX  =  295.446; ENMIN  =  221.585 eV

 POTCAR:    PAW_PBE Ni 02Aug2007
   VRHFIN =Ni:

   TITEL  = PAW_PBE Ni 02Aug2007
   POMASS =   58.690; ZVAL   =   10.000    mass and valenz
   ENMAX  =  269.532; ENMIN  =  202.149 eV

 Optimization of the real space projectors (new method)

 maximal supplied QI-value         = 14.36
 optimisation between [QCUT,QGAM] = [ 11.92, 23.98] = [ 39.79,161.09] Ry
 Optimized for a Real-space Cutoff    1.49 Angstroem

   l    n(q)    QCUT    max X(q) W(low)/X(q) W(high)/X(q)  e(spline)
   2     10    11.920    66.195    0.79E-04    0.18E-03    0.24E-06
   2     10    11.920    64.643    0.81E-04    0.19E-03    0.24E-06
   0     11    11.920    95.520    0.28E-04    0.54E-04    0.18E-06
   0     11    11.920    63.403    0.27E-04    0.52E-04    0.17E-06
   1     10    11.920    19.961    0.18E-04    0.11E-03    0.23E-06
   1     10    11.920    13.289    0.25E-04    0.87E-04    0.19E-06
 Optimization of the real space projectors (new method)

[...]

   l    n(q)    QCUT    max X(q) W(low)/X(q) W(high)/X(q)  e(spline)
   2     10    11.864     4.610    0.10E-03    0.20E-03    0.29E-06
   2     10    11.864     8.522    0.17E-03    0.33E-03    0.50E-06
   0     11    11.864    51.609    0.52E-04    0.55E-04    0.33E-06
   0     11    11.864    27.747    0.46E-04    0.52E-04    0.31E-06
   1     10    11.864    20.408    0.54E-04    0.25E-04    0.21E-06
   1     10    11.864    13.425    0.48E-04    0.22E-04    0.18E-06
 Optimization of the real space projectors (new method)

 maximal supplied QI-value         = 16.25
 optimisation between [QCUT,QGAM] = [ 11.86, 23.89] = [ 39.41,159.82] Ry
 Optimized for a Real-space Cutoff    1.33 Angstroem

   l    n(q)    QCUT    max X(q) W(low)/X(q) W(high)/X(q)  e(spline)
   2      9    11.864    60.317    0.21E-03    0.51E-03    0.25E-06
   2      9    11.864    55.921    0.21E-03    0.51E-03    0.26E-06
   0      9    11.864    51.690    0.22E-03    0.30E-04    0.17E-06
   0      9    11.864    30.015    0.20E-03    0.28E-04    0.15E-06
   1      9    11.864    18.849    0.76E-04    0.33E-03    0.17E-06
   1      9    11.864    14.624    0.60E-04    0.28E-03    0.15E-06
  PAW_PBE Pt 04Feb2005                  :
  PAW_PBE Fe 06Sep2000                  :
  PAW_PBE Co 02Aug2007                  :
  PAW_PBE Cu 22Jun2005                  :
  PAW_PBE Ni 02Aug2007                  :

 POSCAR: 10.56
  positions in direct lattice
  velocities in cartesian coordinates
 exchange correlation table for  LEXCH =        8
   RHO(1)=    0.500       N(1)  =     2000
   RHO(2)=  100.500       N(2)  =     4000

 ion  position               nearest neighbor table
   1  0.788  0.879  0.317-  49 2.62  28 2.63  19 2.63  59 2.65  33 2.66  61 2.66  29 2.67  60 2.68
                             2 2.72  11 2.77   4 2.81  12 2.85
   2  0.043  0.882  0.316-  79 2.55  77 2.60  60 2.63  30 2.64  28 2.66  52 2.66  33 2.68  22 2.69
                             1 2.72   6 2.76   4 2.83  16 2.89
   3  0.280  0.380  0.320-  39 2.56  64 2.58  33 2.59  31 2.63  19 2.70  43 2.70  68 2.71  30 2.72
                             5 2.78  13 2.79  18 2.81  25 2.84
   4  0.875  0.961  0.424-  17 2.63   9 2.64  16 2.64   6 2.65  11 2.65  12 2.65  60 2.80   1 2.81
                             2 2.83
   5  0.123  0.462  0.428-  12 2.62   7 2.63  10 2.64  16 2.64  25 2.66  13 2.66  39 2.72  33 2.74
                             3 2.78
   6  0.125  0.961  0.422-   8 2.63  10 2.64  14 2.64   9 2.64   4 2.65  16 2.65   2 2.76  52 2.77
                            22 2.86
   7  0.875  0.460  0.427-  15 2.62   5 2.63   9 2.63  10 2.64  12 2.65  27 2.65  39 2.68  75 2.76
                            29 2.80
   8  0.375  0.960  0.421-  43 2.60  14 2.62  27 2.62   6 2.63  13 2.63  10 2.64  11 2.64  52 2.69
                            61 2.73
   9  0.875  0.211  0.421-   7 2.63  15 2.63  17 2.63   4 2.64   6 2.64  10 2.65  75 2.69  60 2.72
                            22 2.81
  10  0.126  0.210  0.423-  13 2.62   6 2.64   5 2.64   8 2.64   7 2.64   9 2.65  39 2.67  43 2.71
                            22 2.79
  11  0.625  0.960  0.423-  13 2.63  12 2.64  17 2.64   8 2.64  27 2.64   4 2.65   1 2.77  19 2.82
                            61 2.83
  12  0.875  0.710  0.426-   5 2.62  11 2.64  16 2.64   7 2.65   4 2.65  27 2.65  33 2.69  29 2.82
                             1 2.85
  13  0.375  0.209  0.425-  10 2.62  11 2.63   8 2.63  17 2.66  25 2.66   5 2.66  43 2.76   3 2.79
                            19 2.83
  14  0.376  0.711  0.424-  27 2.61   8 2.62   6 2.64  15 2.64  25 2.65  16 2.66  44 2.69  30 2.77
                            52 2.77
  15  0.626  0.461  0.423-   7 2.62  27 2.63   9 2.63  14 2.64  17 2.65  25 2.65  44 2.69  75 2.71
                            18 2.76
  16  0.125  0.711  0.426-  25 2.64   5 2.64   4 2.64  12 2.64   6 2.65  14 2.66  33 2.67  30 2.83
                             2 2.89
  17  0.625  0.210  0.422-   4 2.63   9 2.63  11 2.64  15 2.65  25 2.65  13 2.66  18 2.76  60 2.76
                            19 2.86
  18  0.548  0.376  0.317-  67 2.57  60 2.59  75 2.61  44 2.64  68 2.66  26 2.67  30 2.70  19 2.73
                            15 2.76  17 2.76   3 2.81  25 2.88
  19  0.535  0.124  0.315-  80 2.55  43 2.57  68 2.57  59 2.60   1 2.63  61 2.63   3 2.70  18 2.73
                            60 2.75  11 2.82  13 2.83  17 2.86
  20  0.545  0.124  0.040-  37 2.55  57 2.55  48 2.58  62 2.63  47 2.67  63 2.67  45 2.68  56 2.70
                            34 2.71
  21  0.121  0.461  0.128-  40 2.52  36 2.53  47 2.53  42 2.59  69 2.61  64 2.62  70 2.64  50 2.64
                            58 2.67  57 2.71  74 2.71  31 2.71
  22  0.043  0.137  0.314-  65 2.52  55 2.54  77 2.58  39 2.58  43 2.58  75 2.60  60 2.68   2 2.69
                            52 2.73  10 2.79   9 2.81   6 2.86  31 3.39
  23  0.040  0.131  0.033-  70 2.58  40 2.61  41 2.61  45 2.62  76 2.63  62 2.64  24 2.69  35 2.72
                            53 2.78
  24  0.130  0.959  0.132-  79 2.51  77 2.54  35 2.57  53 2.57  55 2.58  70 2.62  38 2.64  58 2.64
                            73 2.65  23 2.69  66 2.71  41 2.72
  25  0.375  0.461  0.427-  16 2.64  17 2.65  14 2.65  15 2.65   5 2.66  13 2.66   3 2.84  30 2.85
                            18 2.88
  26  0.455  0.545  0.219-  73 2.50  74 2.54  51 2.55  79 2.61  64 2.63  30 2.65  68 2.67  18 2.67
                            78 2.67  32 2.68  67 2.72  44 2.76
  27  0.623  0.711  0.424-  14 2.61   8 2.62  15 2.63  11 2.64  12 2.65   7 2.65  44 2.68  61 2.77
                            29 2.79
  28  0.957  0.789  0.221-  58 2.56  66 2.58  50 2.58  42 2.60  49 2.62   1 2.63  64 2.63   2 2.66
                            59 2.71  33 2.73  79 2.77  77 2.77
  29  0.795  0.622  0.319-  39 2.54  42 2.56  75 2.57  32 2.62  44 2.64  33 2.65   1 2.67  61 2.68
                            49 2.69  27 2.79   7 2.80  12 2.82
  30  0.292  0.631  0.318-  79 2.56  64 2.61  52 2.62  44 2.63   2 2.64  26 2.65  33 2.66  18 2.70
                             3 2.72  14 2.77  16 2.83  25 2.85
  31  0.202  0.281  0.226-  70 2.53  55 2.55  65 2.57  57 2.60  43 2.60   3 2.63  39 2.68  80 2.70
                            42 2.70  21 2.71  68 2.75  64 2.79  22 3.39
  32  0.707  0.549  0.221-  54 2.53  69 2.56  51 2.58  49 2.59  42 2.60  29 2.62  65 2.62  78 2.62
                            26 2.68  75 2.70  67 2.70  44 2.71
  33  0.041  0.630  0.326-   3 2.59  39 2.64  29 2.65   1 2.66  30 2.66  16 2.67   2 2.68  12 2.69
                            64 2.71  28 2.73   5 2.74  42 2.75
  34  0.796  0.862  0.042-  50 2.38  66 2.51  48 2.53  71 2.55  36 2.56  63 2.61  20 2.71  62 2.76
                            35 2.77
  35  0.056  0.867  0.038-  58 2.54  72 2.55  36 2.56  24 2.57  66 2.62  53 2.64  23 2.72  62 2.73
                            34 2.77
  36  0.046  0.629  0.037-  21 2.53  35 2.56  34 2.56  58 2.59  50 2.62  47 2.63  72 2.64  40 2.69
                            71 2.73
  37  0.626  0.222  0.129-  74 2.51  51 2.52  67 2.52  56 2.53  68 2.55  20 2.55  59 2.55  41 2.56
                            62 2.60  66 2.66  57 2.72  48 2.87
  38  0.382  0.955  0.130-  53 2.47  80 2.48  45 2.50  78 2.53  48 2.54  63 2.55  73 2.55  54 2.57
                            55 2.58  57 2.62  24 2.64  70 2.69
  39  0.036  0.383  0.325-  29 2.54   3 2.56  22 2.58  75 2.59  33 2.64  10 2.67   7 2.68  31 2.68
                            42 2.69   5 2.72  65 2.77  43 2.78
  40  0.030  0.383  0.037-  69 2.44  21 2.52  71 2.53  76 2.56  70 2.57  23 2.61  36 2.69  45 2.78
                            47 2.79
  41  0.871  0.216  0.128-  76 2.46  65 2.52  77 2.53  67 2.54  37 2.56  69 2.57  62 2.58  51 2.59
                            23 2.61  70 2.65  66 2.66  24 2.72
  42  0.955  0.545  0.223-  50 2.55  29 2.56  21 2.59  28 2.60  32 2.60  69 2.60  49 2.63  65 2.64
                            64 2.66  39 2.69  31 2.70  33 2.75
  43  0.296  0.117  0.322-  52 2.53  55 2.54  19 2.57  61 2.57  22 2.58  31 2.60   8 2.60  80 2.67
                             3 2.70  10 2.71  13 2.76  39 2.78
  44  0.541  0.629  0.322-  61 2.57  52 2.59  30 2.63  18 2.64  78 2.64  29 2.64  75 2.65  27 2.68
                            15 2.69  14 2.69  32 2.71  26 2.76
  45  0.293  0.121  0.040-  70 2.49  38 2.50  57 2.56  53 2.60  23 2.62  63 2.64  20 2.68  47 2.75
                            40 2.78
  46  0.547  0.626  0.044-  51 2.37  73 2.39  54 2.41  71 2.56  53 2.57  63 2.58  76 2.59  56 2.63
                            72 2.64
  47  0.296  0.380  0.039-  74 2.41  21 2.53  72 2.61  56 2.61  57 2.61  36 2.63  20 2.67  45 2.75
                            40 2.79
  48  0.625  0.950  0.132-  49 2.40  80 2.47  54 2.48  34 2.53  38 2.54  59 2.55  50 2.57  63 2.57
                            20 2.58  57 2.65  66 2.68  37 2.87
  49  0.707  0.794  0.220-  48 2.40  50 2.48  54 2.49  80 2.54  32 2.59  78 2.61  28 2.62   1 2.62
                            42 2.63  61 2.63  29 2.69  59 2.70
  50  0.866  0.706  0.129-  34 2.38  71 2.42  54 2.48  49 2.48  42 2.55  48 2.57  28 2.58  69 2.58
                            36 2.62  21 2.64  66 2.75  58 2.85
[...]
   0.373E+02 -.135E+02 -.155E+04   -.389E+02 0.137E+02 0.155E+04   0.166E+01 -.154E+00 0.204E+01   0.509E-03 0.500E-03 -.336E-03
   -.423E+01 0.247E+02 -.294E+04   0.432E+01 -.246E+02 0.294E+04   -.908E-01 -.119E+00 0.719E+00   -.437E-03 0.209E-03 -.687E-04
   -.115E+02 0.219E+01 -.293E+04   0.110E+02 -.188E+01 0.293E+04   0.467E+00 -.296E+00 0.149E+01   0.804E-03 0.386E-03 0.178E-03
   0.126E+01 0.435E+01 -.292E+04   -.124E+01 -.464E+01 0.292E+04   0.129E-01 0.256E+00 0.889E+00   -.521E-04 0.236E-03 -.384E-04
   -.170E+02 -.730E+01 -.296E+04   0.171E+02 0.694E+01 0.296E+04   -.145E+00 0.337E+00 0.135E+01   -.605E-03 0.163E-03 0.181E-03
   0.115E+02 -.162E+02 -.294E+04   -.118E+02 0.163E+02 0.293E+04   0.298E+00 -.149E+00 0.185E+01   -.553E-03 0.106E-03 0.280E-03
   -.199E+02 0.143E+02 -.295E+04   0.198E+02 -.141E+02 0.295E+04   0.125E+00 -.232E+00 0.104E+01   -.175E-03 -.258E-04 0.173E-03
   -.929E+01 0.487E+00 -.291E+04   0.965E+01 -.219E+00 0.291E+04   -.315E+00 -.251E+00 0.157E+01   -.137E-03 -.153E-03 0.319E-03
   -.773E+01 -.351E+01 -.295E+04   0.794E+01 0.335E+01 0.295E+04   -.241E+00 0.119E+00 0.684E+00   0.658E-03 0.514E-03 -.124E-03
   -.972E+01 -.790E+00 -.293E+04   0.100E+02 0.453E+00 0.292E+04   -.287E+00 0.335E+00 0.106E+01   0.279E-04 0.291E-03 -.208E-03
   0.150E+00 -.171E+02 -.293E+04   -.451E+00 0.169E+02 0.293E+04   0.313E+00 0.219E+00 0.795E+00   0.625E-03 0.680E-03 0.766E-04
   0.219E+02 0.751E+01 -.293E+04   -.215E+02 -.744E+01 0.293E+04   -.424E+00 -.891E-01 0.133E+01   -.110E-03 -.332E-03 -.108E-03
   0.208E+02 -.125E+02 -.294E+04   -.205E+02 0.127E+02 0.294E+04   -.267E+00 -.221E+00 0.121E+01   -.309E-03 0.303E-03 -.315E-03
   -.122E+01 0.385E+00 -.292E+04   0.938E+00 -.750E+00 0.292E+04   0.276E+00 0.346E+00 0.103E+01   -.181E-03 -.511E-03 -.223E-03
   0.286E+02 -.601E+01 -.294E+04   -.284E+02 0.618E+01 0.294E+04   -.173E+00 -.203E+00 0.950E+00   -.620E-03 -.223E-04 -.415E-03
   0.686E+02 -.712E+02 -.154E+04   -.673E+02 0.714E+02 0.154E+04   -.121E+01 -.242E+00 0.175E+01   -.233E-03 0.449E-04 -.313E-03
   0.306E+02 -.426E+02 -.153E+04   -.317E+02 0.422E+02 0.153E+04   0.109E+01 0.446E+00 0.242E+01   0.676E-03 0.397E-03 0.227E-03
   0.334E+02 0.331E+02 0.304E+04   -.336E+02 -.332E+02 -.304E+04   0.148E+00 0.112E+00 -.232E+01   -.453E-04 -.831E-04 0.470E-04
   0.378E+02 -.743E+01 0.160E+04   -.386E+02 0.814E+01 -.161E+04   0.900E+00 -.657E+00 0.929E+00   0.729E-04 0.515E-03 0.276E-03
   -.699E+02 0.107E+02 -.149E+04   0.708E+02 -.997E+01 0.149E+04   -.892E+00 -.675E+00 0.263E+01   -.677E-03 0.402E-04 0.266E-03
   -.552E+02 0.525E+02 0.309E+04   0.559E+02 -.516E+02 -.309E+04   -.661E+00 -.889E+00 -.207E+01   0.324E-03 -.344E-03 0.190E-03
   -.380E+00 -.546E+02 0.159E+04   0.671E+00 0.541E+02 -.159E+04   -.340E+00 0.444E+00 -.776E+00   -.353E-03 0.274E-03 -.243E-04
   0.885E+01 0.374E+00 -.293E+04   -.903E+01 -.354E+00 0.293E+04   0.175E+00 -.334E-01 0.648E+00   -.201E-03 -.944E-04 -.375E-03
   -.241E+02 -.895E+01 0.894E+01   0.241E+02 0.923E+01 -.102E+02   -.201E-01 -.333E+00 0.131E+01   -.255E-03 -.986E-03 0.212E-03
   -.119E+02 0.755E+01 -.294E+04   0.114E+02 -.770E+01 0.294E+04   0.504E+00 0.175E+00 0.126E+01   -.161E-03 -.450E-03 -.138E-03
   0.196E+02 0.648E+02 0.172E+01   -.206E+02 -.660E+02 -.213E+01   0.105E+01 0.116E+01 0.346E+00   -.253E-03 0.443E-05 -.123E-04
   -.652E+02 0.646E+01 -.149E+04   0.656E+02 -.772E+01 0.149E+04   -.362E+00 0.134E+01 0.281E+01   -.176E-03 0.844E-05 -.750E-03
   0.263E+02 0.260E+02 -.155E+04   -.260E+02 -.253E+02 0.154E+04   -.268E+00 -.684E+00 0.226E+01   0.837E-04 -.654E-03 -.417E-03
   0.220E+02 -.639E+02 -.844E+02   -.230E+02 0.633E+02 0.847E+02   0.104E+01 0.533E+00 -.238E+00   0.561E-03 0.917E-03 0.332E-03
   -.221E+02 -.226E+02 0.250E+01   0.229E+02 0.233E+02 -.323E+01   -.841E+00 -.724E+00 0.741E+00   0.337E-03 -.536E-03 -.233E-03
   0.190E+02 0.153E+02 -.125E+04   -.191E+02 -.156E+02 0.125E+04   0.159E+00 0.428E+00 0.327E+00   0.344E-03 0.173E-03 -.336E-03
   -.618E+02 -.392E+01 0.244E+04   0.621E+02 0.269E+01 -.244E+04   -.352E+00 0.126E+01 -.273E+01   -.463E-04 -.381E-03 -.143E-04
   0.315E+02 -.142E+02 0.247E+04   -.313E+02 0.129E+02 -.247E+04   -.135E+00 0.142E+01 -.232E+01   -.134E-03 -.127E-03 0.102E-03
   0.236E+02 -.510E+01 0.248E+04   -.237E+02 0.566E+01 -.248E+04   0.953E-01 -.587E+00 -.294E+01   -.243E-03 0.180E-04 0.191E-03
   0.364E+01 0.496E+02 0.129E+04   -.280E+01 -.490E+02 -.129E+04   -.870E+00 -.661E+00 -.164E+00   0.834E-04 0.334E-03 0.406E-03
   0.345E+02 -.547E+02 0.127E+04   -.344E+02 0.545E+02 -.127E+04   -.122E+00 0.213E+00 -.454E+00   0.206E-03 0.182E-03 -.495E-03
   -.545E+02 -.249E+02 -.125E+04   0.547E+02 0.251E+02 0.125E+04   -.127E+00 -.200E+00 0.628E+00   0.195E-03 0.301E-03 -.155E-03
   -.935E+02 0.214E+02 0.248E+04   0.932E+02 -.212E+02 -.248E+04   0.301E+00 -.188E+00 -.275E+01   0.259E-03 0.356E-03 0.178E-04
   -.332E+02 0.448E+02 0.130E+04   0.324E+02 -.444E+02 -.130E+04   0.826E+00 -.499E+00 -.481E+00   -.406E-03 0.188E-03 0.534E-03
   -.437E+02 0.220E+01 -.433E+02   0.435E+02 -.180E+01 0.431E+02   0.199E+00 -.422E+00 0.462E-01   0.784E-04 0.340E-03 -.137E-03
   0.129E+02 -.789E+02 -.126E+04   -.131E+02 0.788E+02 0.125E+04   0.182E+00 0.230E+00 0.102E+01   0.353E-03 0.323E-03 0.247E-03
   0.137E+02 0.266E+02 -.124E+04   -.137E+02 -.266E+02 0.124E+04   0.513E-01 -.462E-01 0.286E+00   -.396E-03 -.426E-03 -.795E-04
   0.154E+02 -.450E+02 0.245E+04   -.160E+02 0.443E+02 -.245E+04   0.659E+00 0.690E+00 -.270E+01   0.238E-03 -.259E-03 -.268E-04
   0.516E+01 -.195E+02 0.276E+04   -.522E+01 0.197E+02 -.275E+04   0.763E-01 -.200E+00 -.236E+01   0.278E-03 -.257E-03 0.192E-03
   0.121E+03 0.288E+02 0.279E+04   -.122E+03 -.282E+02 -.279E+04   0.381E+00 -.651E+00 -.238E+01   0.109E-03 -.140E-03 0.175E-03
   -.353E+02 -.266E+02 0.142E+04   0.349E+02 0.255E+02 -.142E+04   0.435E+00 0.111E+01 -.460E+00   0.315E-03 -.142E-03 0.327E-04
   -.587E+02 0.680E+02 0.198E+02   0.587E+02 -.678E+02 -.207E+02   0.202E-01 -.219E+00 0.898E+00   0.715E-03 -.324E-03 0.215E-03
   -.877E+02 0.193E+02 0.141E+04   0.872E+02 -.188E+02 -.141E+04   0.501E+00 -.490E+00 -.170E+00   0.961E-04 -.241E-03 0.172E-03
   -.200E+02 0.122E+02 0.139E+04   0.201E+02 -.124E+02 -.139E+04   -.147E+00 0.269E+00 -.128E+00   -.201E-03 -.150E-03 0.556E-03
   0.456E+02 0.890E+01 -.140E+04   -.454E+02 -.904E+01 0.140E+04   -.302E+00 0.188E+00 0.145E+01   -.533E-03 -.503E-03 0.265E-03
   0.524E+02 -.817E+02 0.276E+04   -.521E+02 0.815E+02 -.276E+04   -.325E+00 0.209E+00 -.245E+01   0.407E-03 0.291E-04 -.104E-03
   -.128E+02 0.711E+00 0.138E+04   0.130E+02 -.475E+00 -.138E+04   -.130E+00 -.250E+00 -.465E+00   0.479E-03 -.504E-03 0.153E-04
   0.178E+02 -.662E+02 -.209E+02   -.171E+02 0.657E+02 0.211E+02   -.780E+00 0.590E+00 -.318E+00   -.519E-03 0.428E-04 -.693E-04
   0.287E+02 0.327E+02 0.344E+04   -.288E+02 -.319E+02 -.344E+04   0.925E-01 -.813E+00 -.357E+01   0.229E-03 0.486E-04 0.530E-03
   0.650E+02 0.906E+01 0.173E+04   -.651E+02 -.975E+01 -.173E+04   0.146E+00 0.723E+00 -.232E+00   0.135E-03 0.487E-03 0.157E-03
   0.102E+03 -.337E+02 0.172E+04   -.102E+03 0.337E+02 -.172E+04   -.154E+00 0.278E-01 0.538E-01   -.418E-03 -.529E-03 0.675E-03
   0.157E+02 0.713E+02 0.753E+02   -.163E+02 -.711E+02 -.762E+02   0.567E+00 -.235E+00 0.817E+00   0.315E-03 0.389E-04 0.385E-03
   0.127E+02 0.527E+02 -.172E+04   -.123E+02 -.522E+02 0.172E+04   -.441E+00 -.470E+00 0.138E+01   -.398E-03 0.128E-03 -.362E-03
[...]
   0.712E+01 -.791E+02 0.425E+02   -.670E+01 0.780E+02 -.433E+02   -.426E+00 0.130E+01 0.729E+00   -.514E-03 0.316E-03 0.219E-03
   0.531E+02 -.362E+02 -.438E+01   -.525E+02 0.358E+02 0.396E+01   -.567E+00 0.401E+00 0.474E+00   0.390E-03 0.537E-03 0.450E-03
   -.729E+02 0.314E+01 0.156E+04   0.725E+02 -.304E+01 -.156E+04   0.410E+00 -.338E-01 -.143E+00   -.984E-04 0.473E-03 0.515E-03
   -.126E+02 0.221E+02 0.162E+04   0.130E+02 -.223E+02 -.162E+04   -.388E+00 0.178E+00 -.528E+00   0.280E-03 0.190E-03 0.665E-04
   -.999E+02 -.304E+01 0.309E+04   0.100E+03 0.312E+01 -.309E+04   -.494E+00 -.754E-01 -.137E+01   0.688E-04 0.389E-03 -.168E-03
   0.692E+02 -.528E+02 0.309E+04   -.696E+02 0.534E+02 -.309E+04   0.369E+00 -.629E+00 -.830E+00   0.444E-04 -.362E-03 0.581E-04
   0.129E+02 -.403E+02 0.155E+04   -.125E+02 0.401E+02 -.155E+04   -.408E+00 0.220E+00 -.306E-01   0.990E-04 -.721E-03 0.460E-04
   0.483E+02 0.199E+01 0.159E+04   -.479E+02 -.201E+01 -.159E+04   -.485E+00 0.648E-01 -.114E+00   0.288E-03 -.181E-03 0.631E-03
   -.379E+02 -.703E+02 -.156E+04   0.378E+02 0.704E+02 0.156E+04   0.135E+00 -.848E-01 0.733E+00   -.532E-03 -.158E-03 -.257E-03
   -.532E+02 0.301E+02 0.307E+04   0.536E+02 -.296E+02 -.307E+04   -.411E+00 -.558E+00 -.195E+01   -.447E-03 0.509E-03 0.439E-03
   -.489E+02 0.744E+02 0.690E+02   0.493E+02 -.741E+02 -.692E+02   -.354E+00 -.360E+00 0.183E+00   -.629E-03 0.922E-04 0.232E-03
   -.138E+01 0.611E+02 -.104E+02   0.131E+01 -.604E+02 0.103E+02   0.917E-01 -.836E+00 0.625E-01   0.307E-03 -.699E-03 0.177E-03
   0.475E+02 0.567E+01 -.357E+02   -.472E+02 -.503E+01 0.355E+02   -.422E+00 -.663E+00 0.136E+00   -.805E-03 -.652E-03 0.461E-03
   0.261E+02 -.472E+02 0.246E+02   -.265E+02 0.467E+02 -.249E+02   0.332E+00 0.476E+00 0.236E+00   0.920E-03 0.169E-03 0.988E-04
   -.222E+01 -.103E+01 -.807E+01   -.753E-12 -.128E-12 0.345E-11   0.223E+01 0.102E+01 0.806E+01   -.317E-03 0.125E-03 0.393E-02

 POSITION                                       TOTAL-FORCE (eV/Angst)
     12.95511      8.03406      6.98300         0.001206      0.000272      0.004569
      5.11375      8.06749      6.94823         0.001393     -0.000468      0.000346
      4.96109      3.47773      7.03947         0.000729     -0.003630     -0.000004
     14.31362      8.78992      9.32392        -0.001741     -0.000643     -0.002293
      3.73081      4.22082      9.42273         0.005579     -0.001962     -0.001840
      6.39784      8.78764      9.27690         0.007331      0.003919     -0.000625
     11.66310      4.20413      9.38972        -0.002197      0.000084     -0.000977
      9.02609      8.77478      9.25356        -0.002550     -0.001545     -0.002153
     10.34931      1.92855      9.26486         0.006329     -0.001909     -0.004138
      2.43841      1.92490      9.30587        -0.001779     -0.007337     -0.003370
     11.66687      8.78352      9.31410         0.006611      0.001141     -0.000923
     12.98541      6.49483      9.37611         0.004753     -0.001280      0.002472
      5.05891      1.91154      9.35154         0.003379     -0.001624     -0.002156
      7.72537      6.50583      9.32256         0.004886     -0.002886     -0.000790
      9.04141      4.21355      9.30217         0.006108      0.003309      0.000998
      5.06875      6.49911      9.37480        -0.000120     -0.004305      0.001895
      7.71531      1.92266      9.28885        -0.000574     -0.005307      0.000595
      7.77014      3.43836      6.98159        -0.001382      0.000860     -0.002104
      6.30353      1.13736      6.92959         0.002350     -0.003405     -0.002623
      6.41385      1.13458      0.88131        -0.001143      0.000711     -0.000689
      3.70764      4.21592      2.80810         0.000928      0.001163      0.000343
      1.17358      1.25243      6.91357        -0.000280     -0.000277     -0.000884
      1.12056      1.20074      0.72652        -0.001414      0.001739     -0.000829
      6.43126      8.76911      2.90644         0.000094     -0.000907     -0.001699
      6.38984      4.21507      9.38315        -0.001495     -0.002282      0.000682
      7.68633      4.98792      4.80741        -0.002230      0.001204      0.002706
     10.33338      6.50069      9.31911        -0.000971     -0.007456      0.000957
     14.27188      7.21845      4.85859         0.000715      0.000766      0.003146
     11.68093      5.68632      7.01492         0.001111     -0.000095      0.000479
      6.41400      5.77087      6.99642        -0.000694     -0.001583      0.000984
      3.61764      2.56945      4.96212         0.002133      0.001406      0.000795
     10.36302      5.01975      4.85183        -0.000307      0.003518      0.003246
      3.76224      5.76533      7.16336         0.000212     -0.004395      0.000936
     12.95388      7.88480      0.92596        -0.004732      0.002455      0.002379
      5.16345      7.92799      0.83489        -0.003486     -0.000973      0.000617
      3.81068      5.75329      0.80318        -0.001776      0.000767      0.000836
      7.78008      2.03116      2.84041        -0.000105      0.001502     -0.001465
      9.07335      8.73503      2.86310        -0.001255     -0.000911     -0.001138
      2.40196      3.50257      7.15798        -0.000416     -0.001152     -0.003569
      2.33999      3.50233      0.81733        -0.001695      0.000600      0.002678
     10.33663      1.97214      2.82465        -0.000380     -0.000042     -0.000579
     12.95836      4.98088      4.91269        -0.001185      0.001235      0.001369
      3.73714      1.06771      7.08397        -0.000310     -0.000916     -0.002355
      9.03883      5.75138      7.09368         0.002015     -0.000749     -0.000147
      3.73399      1.10331      0.87502        -0.000130      0.002216     -0.001280
      9.08729      5.72659      0.95984        -0.001583      0.002101     -0.001693
      5.12811      3.47265      0.85139        -0.001520      0.004593      0.000739
     11.61583      8.69177      2.91423         0.001232     -0.001286      0.001531
     11.65594      7.26424      4.83811        -0.001916     -0.000188      0.001437
     12.87206      6.45685      2.83055        -0.000032      0.002438      0.003390
      9.04124      4.21313      2.78881        -0.000478      0.002005     -0.001006
      7.77525      8.01386      6.99804         0.002122     -0.000519      0.000662
      7.80373      7.95031      0.89305         0.000766      0.001472     -0.002769
     10.39257      6.53294      2.82089        -0.002407      0.001041     -0.000139
      2.51780      0.26633      5.00124         0.001174      0.000694     -0.001871
      7.73843      3.48227      0.76336        -0.003695      0.001148     -0.000829
      5.06878      1.87958      2.92107         0.001696     -0.001577     -0.001527
      5.16082      6.45098      2.89493        -0.002908      0.001633     -0.001285
      7.71223      0.45966      4.85137         0.000089     -0.000410      0.000856
      9.05745      1.18719      6.98739        -0.000392     -0.000454      0.001114
[...]
     14.28727      8.81755      2.83795        -0.002754      0.003063     -0.000321
      9.07187      2.64880      4.91601         0.001157     -0.000942     -0.001213
      6.36437      2.66813      4.86119         0.000392      0.000950     -0.000521
     11.65540      4.18085      2.80441        -0.003647      0.003305      0.001709
      2.43060      1.90852      2.83269        -0.002314     -0.000396     -0.001235
     11.64616      5.70108      0.88094         0.000921      0.001866      0.004961
      6.44872      5.72407      0.92743        -0.002434      0.001354      0.000690
      7.82422      6.51251      2.83445        -0.002220     -0.000998     -0.001928
      6.41250      4.13214      2.78164        -0.000166      0.001720      0.000526
     10.37787      3.47047      7.06004         0.000218      0.002940     -0.002144
     10.33927      3.45547      0.86147        -0.000228      0.000465      0.000244
     10.36224      0.48389      4.87440        -0.002108     -0.002807      0.001074
      9.04416      7.28481      4.94090         0.002299      0.000145      0.000322
      6.47570      7.29926      4.93971         0.000426      0.000528      0.000687
      5.04109      0.27900      4.88879        -0.001293      0.000531     -0.001562
    total drift:                                0.011333     -0.003834     -0.004738

  FREE ENERGIE OF THE ION-ELECTRON SYSTEM (eV)
  free  energy   TOTEN  =      -507.79993190 eV

  energy  without entropy=     -507.81334258  energy(sigma->0) =     -507.80440213

 d Force = 0.7772977E-04[ 0.134E-04, 0.142E-03]  d Energy = 0.7899006E-04-0.126E-05
 d Force =-0.2089660E+01[-0.209E+01,-0.209E+01]  d Ewald  =-0.2089659E+01-0.109E-05

 Steepest descent step on ions:
 trial-energy change:   -0.000079  1 .order   -0.000078   -0.000142   -0.000013
  (g-gl).g = 0.142E-03      g.g   = 0.142E-03  gl.gl    = 0.000E+00
 g(Force)  = 0.142E-03   g(Stress)= 0.000E+00 ortho     = 0.000E+00
 gamma     =   0.00000
 trial     =   1.00000
 opt step  =   1.09824  (harmonic =   1.10459) maximal distance =0.00067768
 next E    =  -507.799933   (d E  =  -0.00008)

 reached required accuracy - stopping structural energy minimisation