 vasp.5.4.4.18Apr17-6-g9f103f2a35 (build Nov 30 2020 22:55:02) complex

 executed on             LinuxIFC date 2023.08.08  09:36:20

 INCAR:
 POTCAR:    PAW_PBE Pt 04Feb2005
 POTCAR:    PAW_PBE H 15Jun2001

 POTCAR:    PAW_PBE Pt 04Feb2005
   VRHFIN =Pt: s1d9

   TITEL  = PAW_PBE Pt 04Feb2005
   POMASS =  195.080; ZVAL   =   10.000    mass and valenz
   ENMAX  =  230.283; ENMIN  =  172.712 eV

 POTCAR:    PAW_PBE H 15Jun2001
   VRHFIN =H: ultrasoft test

   TITEL  = PAW_PBE H 15Jun2001
   POMASS =    1.000; ZVAL   =    1.000    mass and valenz
   ENMAX  =  250.000; ENMIN  =  200.000 eV

 Optimization of the real space projectors (new method)

 maximal supplied QI-value         = 14.36
 optimisation between [QCUT,QGAM] = [ 11.92, 23.98] = [ 39.79,161.09] Ry
 Optimized for a Real-space Cutoff    1.49 Angstroem

   l    n(q)    QCUT    max X(q) W(low)/X(q) W(high)/X(q)  e(spline)
   2     10    11.920    66.195    0.79E-04    0.18E-03    0.24E-06
   2     10    11.920    64.643    0.81E-04    0.19E-03    0.24E-06
   0     11    11.920    95.520    0.28E-04    0.54E-04    0.18E-06
   0     11    11.920    63.403    0.27E-04    0.52E-04    0.17E-06
   1     10    11.920    19.961    0.18E-04    0.11E-03    0.23E-06
   1     10    11.920    13.289    0.25E-04    0.87E-04    0.19E-06
 Optimization of the real space projectors (new method)

 maximal supplied QI-value         = 34.20
 optimisation between [QCUT,QGAM] = [ 11.97, 23.94] = [ 40.13,160.53] Ry
 Optimized for a Real-space Cutoff    1.18 Angstroem

   l    n(q)    QCUT    max X(q) W(low)/X(q) W(high)/X(q)  e(spline)
   0      8    11.971    19.460    0.15E-03    0.31E-03    0.25E-06
   0      8    11.971    12.209    0.13E-03    0.29E-03    0.25E-06
   1      8    11.971     4.655    0.22E-03    0.24E-03    0.21E-06
  PAW_PBE Pt 04Feb2005                  :
  PAW_PBE H 15Jun2001                   :

 POSCAR: Pt111\(1\1\1)\(2)
  positions in cartesian coordinates
 exchange correlation table for  LEXCH =        8
   RHO(1)=    0.500       N(1)  =     2000
   RHO(2)=  100.500       N(2)  =     4000

 ion  position               nearest neighbor table
   1  1.000  0.000  0.056-   5 2.64   9 2.64  13 2.64  29 2.64  57 2.64  37 2.64  42 2.82  54 2.83
                            14 2.91
   2  0.333  0.169  0.179-  14 2.62  26 2.62   6 2.63  42 2.64  30 2.64  38 2.67  11 2.79   7 2.82
                             9 2.89  21 2.90  13 2.92  15 3.02
   3  0.168  0.334  0.310-  43 2.62  15 2.62  39 2.62   7 2.62  31 2.66  27 2.66   8 2.71   6 2.79
                            48 2.99  12 2.99  14 3.02  10 3.03
   4  0.001  0.001  0.415-   8 2.64  16 2.64  32 2.64  12 2.64  40 2.65  60 2.65   7 2.80  27 2.83
                            63 2.90
   5  1.000  0.250  0.056-   1 2.64  45 2.64  33 2.64   9 2.64  29 2.64  25 2.64  18 2.85  10 2.90
                            14 2.90
   6  0.333  0.417  0.193-  26 2.63  62 2.63  34 2.63  10 2.63  14 2.63   2 2.63  43 2.79   3 2.79
                            15 2.79  49 3.14   9 3.14  45 3.14
   7  0.169  0.087  0.298-  15 2.62   3 2.62  11 2.64  27 2.64  35 2.67  63 2.67  16 2.80   4 2.80
                             2 2.82  14 2.82  42 2.92  12 3.16
   8  1.000  0.250  0.422-   4 2.64  36 2.64  32 2.64  28 2.64  48 2.66  12 2.66   3 2.71  27 2.94
                            31 2.94
   9  0.250  0.250  0.056-  21 2.64  13 2.64   1 2.64  49 2.64  45 2.64   5 2.64  14 2.89   2 2.89
                             6 3.14
  10  0.086  0.417  0.179-  34 2.62  14 2.62   6 2.63  46 2.64  18 2.65  22 2.67  31 2.79  39 2.82
                            45 2.89   5 2.90  33 2.91   3 3.03
  11  0.417  0.085  0.296-  19 2.62   7 2.64  35 2.64  23 2.64  15 2.66  47 2.66   2 2.79  30 2.82
                            16 2.83  38 2.86  20 2.87  24 2.94
  12  0.248  0.246  0.439-  65 1.86   4 2.64  16 2.64   8 2.66  24 2.66  48 2.70  52 2.70  15 2.99
                             3 2.99   7 3.16
  13  0.250  0.000  0.056-  21 2.64   9 2.64  17 2.64   1 2.64  37 2.64  41 2.64  42 2.82  38 2.83
                             2 2.92
  14  0.086  0.169  0.179-   2 2.62  10 2.62   6 2.63  42 2.64  18 2.64  54 2.67  27 2.79   7 2.82
                             9 2.89   5 2.90   1 2.91   3 3.02
  15  0.416  0.334  0.310-  43 2.62   3 2.62  55 2.62   7 2.62  19 2.66  11 2.66  24 2.71   6 2.79
                            52 2.99  12 2.99   2 3.02  26 3.03
  16  0.250  0.001  0.415-  24 2.64   4 2.64  20 2.64  12 2.64  40 2.65  44 2.65   7 2.80  11 2.83
                            35 2.90
  17  0.500  0.000  0.056-  29 2.64  25 2.64  13 2.64  21 2.64  41 2.64  53 2.64  38 2.83  30 2.86
                            58 2.86
  18  0.834  0.167  0.177-  54 2.64  22 2.64  14 2.64  10 2.65  58 2.66  30 2.66  31 2.82  27 2.82
                            23 2.84   5 2.85  29 2.86  25 2.86
  19  0.665  0.333  0.296-  11 2.62  55 2.64  59 2.64  23 2.64  15 2.66  31 2.66  26 2.79  30 2.82
                            64 2.83  22 2.86  28 2.87  24 2.94
  20  0.500  1.000  0.417-  24 2.64  56 2.64  32 2.64  28 2.64  16 2.64  44 2.64  23 2.86  47 2.87
                            11 2.87
  21  0.500  0.250  0.056-  25 2.64  61 2.64   9 2.64  13 2.64  49 2.64  17 2.64  30 2.85  26 2.90
                             2 2.90
  22  0.833  0.416  0.175-  18 2.64  30 2.64  50 2.64  46 2.64  26 2.67  10 2.67  59 2.79  25 2.83
                            61 2.83  33 2.83  19 2.86  31 2.86
  23  0.667  0.083  0.296-  47 2.64  11 2.64  51 2.64  27 2.64  19 2.64  31 2.64  58 2.84  18 2.84
                            30 2.84  20 2.86  28 2.86  32 2.86
  24  0.500  0.250  0.422-  16 2.64  64 2.64  20 2.64  28 2.64  52 2.66  12 2.66  15 2.71  11 2.94
                            19 2.94
  25  0.750  0.250  0.056-  17 2.64  21 2.64  29 2.64  61 2.64  33 2.64   5 2.64  22 2.83  18 2.86
                            30 2.86
  26  0.581  0.417  0.179-  62 2.62   2 2.62   6 2.63  50 2.64  30 2.65  22 2.67  19 2.79  55 2.82
                            49 2.89  21 2.90  61 2.91  15 3.03
  27  0.918  0.085  0.296-  31 2.62   7 2.64  63 2.64  23 2.64   3 2.66  51 2.66  14 2.79  18 2.82
                             4 2.83  54 2.86  32 2.87   8 2.94
  28  0.750  0.250  0.417-  24 2.64   8 2.64  32 2.64  20 2.64  64 2.64  36 2.64  23 2.86  31 2.87
                            19 2.87
  29  0.750  0.000  0.056-  17 2.64  25 2.64   5 2.64  53 2.64   1 2.64  57 2.64  54 2.83  18 2.86
                            58 2.86
  30  0.583  0.167  0.177-  38 2.64  22 2.64   2 2.64  26 2.65  58 2.66  18 2.66  19 2.82  11 2.82
                            23 2.84  21 2.85  17 2.86  25 2.86
  31  0.918  0.333  0.296-  27 2.62  39 2.64  59 2.64  23 2.64   3 2.66  19 2.66  10 2.79  18 2.82
                            36 2.83  22 2.86  28 2.87   8 2.94
  32  0.750  1.000  0.417-  56 2.64   8 2.64  20 2.64  28 2.64  60 2.64   4 2.64  23 2.86  51 2.87
                            27 2.87
  33  1.000  0.500  0.056-  37 2.64  41 2.64   5 2.64  45 2.64  25 2.64  61 2.64  46 2.82  22 2.83
                            10 2.91
  34  0.333  0.664  0.179-  10 2.62  62 2.62   6 2.63  46 2.64  58 2.64  38 2.67  47 2.79  39 2.82
                            45 2.89  53 2.90  41 2.91  43 3.03
  35  0.168  0.834  0.292-  11 2.64  47 2.64  59 2.66  63 2.66  39 2.67   7 2.67  38 2.79  46 2.81
                            42 2.81  40 2.82  16 2.90  44 2.90
  36  0.001  0.500  0.415-   8 2.64  44 2.64  28 2.64  48 2.64  40 2.65  64 2.65  39 2.80  31 2.83
                            59 2.90
  37  1.000  0.750  0.056-  33 2.64  41 2.64  61 2.64  57 2.64  13 2.64   1 2.64  46 2.83  42 2.83
                            50 2.83
  38  0.334  0.917  0.175-  30 2.64  58 2.64  42 2.64  46 2.64   2 2.67  34 2.67  35 2.79  17 2.83
                            41 2.83  13 2.83  11 2.86  47 2.86
  39  0.169  0.581  0.298-   3 2.62  43 2.62  47 2.64  31 2.64  35 2.67  59 2.67  36 2.80  44 2.80
                            34 2.82  10 2.82  46 2.92  48 3.16
  40  0.000  0.750  0.410-   4 2.65  16 2.65  60 2.65  44 2.65  64 2.65  36 2.65  63 2.82  59 2.82
                            35 2.82
  41  0.250  0.750  0.056-  45 2.64  33 2.64  37 2.64  53 2.64  17 2.64  13 2.64  46 2.82  38 2.83
                            34 2.91
  42  0.084  0.918  0.175-   2 2.64  38 2.64  14 2.64  54 2.64  46 2.66  50 2.66  63 2.81  35 2.81
                            13 2.82   1 2.82  37 2.83   7 2.92
  43  0.416  0.582  0.310-  15 2.62   3 2.62  55 2.62  39 2.62  51 2.66  47 2.66  56 2.71   6 2.79
                            48 2.99  52 2.99  62 3.03  34 3.03
  44  0.250  0.749  0.415-  56 2.64  36 2.64  20 2.64  48 2.64  40 2.65  16 2.65  39 2.80  47 2.83
                            35 2.90
  45  0.250  0.500  0.056-  41 2.64  53 2.64   5 2.64   9 2.64  49 2.64  33 2.64  10 2.89  34 2.89
                             6 3.14
  46  0.084  0.666  0.175-  38 2.64  22 2.64  34 2.64  10 2.64  42 2.66  50 2.66  35 2.81  59 2.81
                            41 2.82  33 2.82  37 2.83  39 2.92
  47  0.417  0.832  0.296-  51 2.62  39 2.64  35 2.64  23 2.64  43 2.66  11 2.66  34 2.79  58 2.82
                            44 2.83  38 2.86  20 2.87  56 2.94
  48  0.248  0.502  0.439-  65 1.86  36 2.64  44 2.64   8 2.66  56 2.66  12 2.70  52 2.70  43 2.99
                             3 2.99  39 3.16
  49  0.500  0.500  0.056-  61 2.64  53 2.64  57 2.64  21 2.64   9 2.64  45 2.64  26 2.89  62 2.89
                             6 3.14
  50  0.832  0.666  0.175-  54 2.64  22 2.64  62 2.64  26 2.64  46 2.66  42 2.66  63 2.81  59 2.81
                            61 2.82  57 2.82  37 2.83  55 2.92
  51  0.665  0.832  0.296-  47 2.62  55 2.64  63 2.64  23 2.64  43 2.66  27 2.66  62 2.79  58 2.82
                            60 2.83  54 2.86  32 2.87  56 2.94
  52  0.504  0.502  0.439-  65 1.86  64 2.64  60 2.64  24 2.66  56 2.66  12 2.70  48 2.70  43 2.99
                            15 2.99  55 3.16
  53  0.500  0.750  0.056-  49 2.64  57 2.64  45 2.64  41 2.64  29 2.64  17 2.64  58 2.85  34 2.90
                            62 2.90
  54  0.833  0.917  0.175-  18 2.64  58 2.64  50 2.64  42 2.64  62 2.67  14 2.67  63 2.79  29 2.83
                            57 2.83   1 2.83  27 2.86  51 2.86
  55  0.663  0.581  0.298-  43 2.62  15 2.62  51 2.64  19 2.64  59 2.67  63 2.67  64 2.80  60 2.80
                            26 2.82  62 2.82  50 2.92  52 3.16
  56  0.500  0.750  0.422-  60 2.64  44 2.64  32 2.64  20 2.64  52 2.66  48 2.66  43 2.71  51 2.94
                            47 2.94
  57  0.750  0.750  0.056-  61 2.64  49 2.64  53 2.64  37 2.64   1 2.64  29 2.64  50 2.82  54 2.83
                            62 2.91
  58  0.583  0.916  0.177-  38 2.64  54 2.64  34 2.64  62 2.64  30 2.66  18 2.66  47 2.82  51 2.82
                            23 2.84  53 2.85  17 2.86  29 2.86
  59  0.916  0.582  0.292-  31 2.64  19 2.64  63 2.66  35 2.66  55 2.67  39 2.67  22 2.79  46 2.81
                            50 2.81  40 2.82  64 2.90  36 2.90
  60  0.749  0.749  0.415-  56 2.64  64 2.64  32 2.64  52 2.64  40 2.65   4 2.65  55 2.80  51 2.83
                            63 2.90
  61  0.750  0.500  0.056-  49 2.64  57 2.64  21 2.64  25 2.64  37 2.64  33 2.64  50 2.82  22 2.83
[...]
      6.60016      0.76128      5.92784         0.004464     -0.000458     -0.001501
      3.96175      2.28470      8.43242        -0.024734      0.014165      0.011439
      6.59998      2.28632      1.11585        -0.004391      0.019943     -0.060173
      3.93595      3.81060      3.58734        -0.022239     -0.000349     -0.004424
      9.24296      0.77325      5.91611        -0.015205     -0.029286     -0.006052
      6.60023      2.28594      8.34280        -0.001456     -0.005848      0.027647
      7.91998      0.00001      1.11585         0.017576     -0.011074     -0.067411
      5.27216      1.52852      3.53299         0.042946     -0.021011      0.064223
      7.93168      3.04447      5.91564        -0.029486      0.003401     -0.003987
      2.64029      9.14450      8.34311        -0.000812      0.003904      0.034998
      7.91998      4.57263      1.11585         0.085505     -0.016687     -0.144944
      0.01187      6.07605      3.58761         0.007580     -0.025127     -0.006506
     -2.63201      7.62503      5.84577        -0.027029     -0.021299     -0.002420
     -2.63249      4.56927      8.30526         0.013338     -0.000980      0.026711
      6.59998      6.85894      1.11585         0.000563     -0.000295     -0.232179
     -1.31747      8.38457      3.50301         0.004320     -0.001018     -0.027039
     -1.28789      5.31590      5.96824         0.012156     -0.011121     -0.010677
     -3.95978      6.85855      8.20855         0.001248     -0.004363      0.019725
     -1.32002      6.85894      1.11585         0.058699     -0.066145     -0.145696
     -3.95997      8.39568      3.49507        -0.000323      0.017291      0.015343
      1.32021      5.32026      6.20892        -0.001438     -0.026160     -0.000845
     -1.31378      6.85328      8.30568         0.006726     -0.012100      0.026722
     -0.00002      4.57263      1.11585         0.158507     -0.091507      0.211046
     -2.62913      6.09055      3.49503         0.017481     -0.009229      0.015643
      0.00891      7.61210      5.91620        -0.017950      0.022503     -0.001909
     -0.03173      4.59025      8.77564        -0.025609      0.016987     -0.028431
      2.63998      4.57263      1.11585        -0.158498     -0.095025      0.210243
      5.26915      6.09056      3.49512        -0.016123     -0.008126      0.014631
      2.63133      7.61198      5.91652         0.021301      0.031797     -0.004817
      2.67229      4.59029      8.77579         0.026082      0.012895     -0.028584
      1.31998      6.85894      1.11585         0.000456     -0.209981      0.128777
      3.95746      8.38455      3.50310        -0.008496      0.004461     -0.020808
      3.92823      5.31586      5.96836        -0.012933     -0.007414     -0.010458
      1.32031      6.86010      8.43330         0.000715     -0.033177      0.001438
      3.95998      6.85894      1.11585        -0.058554     -0.063419     -0.145625
      1.31992      8.37407      3.53342         0.003912      0.051718      0.063390
      6.60010      5.32539      5.84581         0.005467      0.029532     -0.000146
      3.95437      6.85330      8.30609        -0.008466     -0.007721      0.029520
      5.27998      4.57263      1.11585        -0.087754     -0.019288     -0.148210
      2.62810      6.07600      3.58776        -0.012083     -0.021349     -0.008755
      5.27244      7.62501      5.84595         0.023234     -0.013735      0.003808
      5.27298      4.56926      8.30518        -0.013160     -0.003746      0.027096
      1.32023      3.81034      9.77218        -0.000149     -0.000693      0.073189
    total drift:                               -0.000486      0.002954      0.030799

  FREE ENERGIE OF THE ION-ELECTRON SYSTEM (eV)
  free  energy   TOTEN  =      -408.94019478 eV

  energy  without entropy=     -408.94019478  energy(sigma->0) =     -408.94019478

 d Force = 0.4243921E-03[-0.220E-02, 0.304E-02]  d Energy = 0.4487493E-03-0.244E-04
 d Force =-0.8780488E+01[-0.879E+01,-0.877E+01]  d Ewald  =-0.8780731E+01 0.243E-03

 Finite differences progress:
  Degree of freedom:   3/  3
  Displacement:        2/  2
  Total:               6/  6

 SECOND DERIVATIVES (NOT SYMMETRIZED)
              65X         65Y         65Z
 65X    -0.986136   -0.004060   -0.009832
 65Y    -0.017078   -0.952677    0.006506
 65Z     0.007210   -0.014083   -5.822387

 Eigenvectors and eigenvalues of the dynamical matrix

   1 f  =   37.722580 THz   237.017960 2PiTHz 1258.289786 cm-1   156.008106 meV
             X         Y         Z           dx          dy          dz
     10.559976  0.000014  1.115846            0           0           0
      2.627923  1.544741  3.587902            0           0           0
      0.012255  3.054948  6.208491            0           0           0
      0.001572  0.006943  8.305630            0           0           0
      9.239976  2.286321  1.115846            0           0           0
      1.320046  3.810562  3.859595            0           0           0
      1.320243  0.798377  5.968661            0           0           0
      9.238767  2.284686  8.432629            0           0           0
      1.319975  2.286321  1.115846            0           0           0
     -1.295979  3.810673  3.587268            0           0           0
      3.957467  0.773239  5.915912            0           0           0
      1.320258  2.248762  8.775624            0           0           0
      2.639975  0.000014  1.115846            0           0           0
      0.012137  1.544805  3.587788            0           0           0
      2.628132  3.054941  6.208484            0           0           0
      2.638912  0.006934  8.305401            0           0           0
      5.279976  0.000014  1.115846            0           0           0
      7.927782  1.528544  3.532934            0           0           0
      5.268603  3.044359  5.915601            0           0           0
      0.000083  9.144534  8.342725            0           0           0
      3.959975  2.286321  1.115846            0           0           0
      6.599970  3.807619  3.502882            0           0           0
      6.600161  0.761283  5.927836            0           0           0
      3.961746  2.284703  8.432422            0           0           0
      6.599975  2.286321  1.115846            0           0           0
      3.935947  3.810604  3.587339            0           0           0
      9.242958  0.773248  5.916114            0           0           0
      6.600231  2.285938  8.342796            0           0           0
      7.919975  0.000014  1.115846            0           0           0
      5.272164  1.528520  3.532991            0           0           0
      7.931676  3.044467  5.915640            0           0           0
      2.640291  9.144499  8.343105            0           0           0
      7.919976  4.572628  1.115846            0           0           0
      0.011866  6.076046  3.587612            0           0           0
     -2.632012  7.625029  5.845773            0           0           0
     -2.632488  4.569268  8.305256            0           0           0
      6.599976  6.858935  1.115846            0           0           0
     -1.317473  8.384574  3.503014            0           0           0
     -1.287890  5.315898  5.968243            0           0           0
     -3.959783  6.858548  8.208550            0           0           0
     -1.320025  6.858935  1.115846            0           0           0
     -3.959971  8.395681  3.495068            0           0           0
      1.320214  5.320262  6.208915            0           0           0
     -1.313778  6.853278  8.305681            0           0           0
     -0.000025  4.572628  1.115846            0           0           0
     -2.629127  6.090551  3.495035            0           0           0
      0.008910  7.612097  5.916197            0           0           0
     -0.031733  4.590250  8.775643            0           0           0
      2.639975  4.572628  1.115846            0           0           0
      5.269148  6.090563  3.495123            0           0           0
      2.631334  7.611983  5.916524            0           0           0
      2.672290  4.590293  8.775793            0           0           0
      1.319976  6.858935  1.115846            0           0           0
      3.957458  8.384549  3.503105            0           0           0
      3.928228  5.315863  5.968356            0           0           0
      1.320312  6.860097  8.433295            0           0           0
      3.959975  6.858935  1.115846            0           0           0
      1.319920  8.374071  3.533420            0           0           0
      6.600101  5.325387  5.845809            0           0           0
      3.954374  6.853302  8.306092            0           0           0
      5.279975  4.572628  1.115846            0           0           0
      2.628104  6.076002  3.587757            0           0           0
      5.272438  7.625015  5.845946            0           0           0
      5.272975  4.569260  8.305184            0           0           0
      1.320228  3.810344  9.787184     0.000273    0.000779    1.000000

[...]

   3 f  =   15.234376 THz    95.720405 2PiTHz  508.164058 cm-1    63.004336 meV
             X         Y         Z           dx          dy          dz
     10.559976  0.000014  1.115846            0           0           0
      2.627923  1.544741  3.587902            0           0           0
      0.012255  3.054948  6.208491            0           0           0
      0.001572  0.006943  8.305630            0           0           0
      9.239976  2.286321  1.115846            0           0           0
      1.320046  3.810562  3.859595            0           0           0
      1.320243  0.798377  5.968661            0           0           0
      9.238767  2.284686  8.432629            0           0           0
      1.319975  2.286321  1.115846            0           0           0
     -1.295979  3.810673  3.587268            0           0           0
      3.957467  0.773239  5.915912            0           0           0
      1.320258  2.248762  8.775624            0           0           0
      2.639975  0.000014  1.115846            0           0           0
      0.012137  1.544805  3.587788            0           0           0
      2.628132  3.054941  6.208484            0           0           0
      2.638912  0.006934  8.305401            0           0           0
      5.279976  0.000014  1.115846            0           0           0
      7.927782  1.528544  3.532934            0           0           0
      5.268603  3.044359  5.915601            0           0           0
      0.000083  9.144534  8.342725            0           0           0
      3.959975  2.286321  1.115846            0           0           0
      6.599970  3.807619  3.502882            0           0           0
      6.600161  0.761283  5.927836            0           0           0
      3.961746  2.284703  8.432422            0           0           0
      6.599975  2.286321  1.115846            0           0           0
      3.935947  3.810604  3.587339            0           0           0
      9.242958  0.773248  5.916114            0           0           0
      6.600231  2.285938  8.342796            0           0           0
      7.919975  0.000014  1.115846            0           0           0
      5.272164  1.528520  3.532991            0           0           0
      7.931676  3.044467  5.915640            0           0           0
      2.640291  9.144499  8.343105            0           0           0
      7.919976  4.572628  1.115846            0           0           0
      0.011866  6.076046  3.587612            0           0           0
     -2.632012  7.625029  5.845773            0           0           0
     -2.632488  4.569268  8.305256            0           0           0
      6.599976  6.858935  1.115846            0           0           0
     -1.317473  8.384574  3.503014            0           0           0
     -1.287890  5.315898  5.968243            0           0           0
     -3.959783  6.858548  8.208550            0           0           0
     -1.320025  6.858935  1.115846            0           0           0
     -3.959971  8.395681  3.495068            0           0           0
      1.320214  5.320262  6.208915            0           0           0
     -1.313778  6.853278  8.305681            0           0           0
     -0.000025  4.572628  1.115846            0           0           0
     -2.629127  6.090551  3.495035            0           0           0
      0.008910  7.612097  5.916197            0           0           0
     -0.031733  4.590250  8.775643            0           0           0
      2.639975  4.572628  1.115846            0           0           0
      5.269148  6.090563  3.495123            0           0           0
      2.631334  7.611983  5.916524            0           0           0
      2.672290  4.590293  8.775793            0           0           0
      1.319976  6.858935  1.115846            0           0           0
      3.957458  8.384549  3.503105            0           0           0
      3.928228  5.315863  5.968356            0           0           0
      1.320312  6.860097  8.433295            0           0           0
      3.959975  6.858935  1.115846            0           0           0
      1.319920  8.374071  3.533420            0           0           0
      6.600101  5.325387  5.845809            0           0           0
      3.954374  6.853302  8.306092            0           0           0
      5.279975  4.572628  1.115846            0           0           0
      2.628104  6.076002  3.587757            0           0           0
      5.272438  7.625015  5.845946            0           0           0
      5.272975  4.569260  8.305184            0           0           0
      1.320228  3.810344  9.787184    -0.277975    0.960588   -0.000672

 Finite differences POTIM=  1.500000000000000E-002
  LATTYP: Found a hexagonal cell.
 ALAT       =    10.5600004196
 C/A-ratio  =     1.8939393187

  Lattice vectors:

 A1 = (  10.5600004196,   0.0000000000,   0.0000000000)
 A2 = (  -5.2800002098,   9.1452286274,   0.0000000000)
 A3 = (   0.0000000000,   0.0000000000,  20.0000000000)

Analysis of symmetry for initial positions (statically):
 Subroutine PRICEL returns:
 Original cell was already a primitive cell.

[...]

The static configuration has the point symmetry C_1 .

Analysis of symmetry for dynamics (positions and initial velocities):
 Subroutine PRICEL returns:
 Original cell was already a primitive cell.

[...]

The dynamic configuration has the point symmetry C_1 .

Analysis of constrained symmetry for selective dynamics:
 Subroutine PRICEL returns:
 Original cell was already a primitive cell.

[...]

The constrained configuration has the point symmetry C_1 .

Analysis of structural, dynamic, and magnetic symmetry:
 Subroutine PRICEL returns:
 Original cell was already a primitive cell.

 Routine SETGRP: Setting up the symmetry group for a
 hexagonal supercell.

 Subroutine GETGRP returns: Found  1 space group operations
 (whereof  1 operations were pure point group operations)
 out of a pool of 24 trial point group operations.

The magnetic configuration has the point symmetry C_1 .

 Subroutine INISYM returns: Found  1 space group operations
 (whereof  1 operations are pure point group operations),
 and found     1 'primitive' translations

 KPOINTS: mesh auto

Automatic generation of k-mesh.
Space group operators:
 irot       det(A)        alpha          n_x          n_y          n_z        tau_x        tau_y        tau_z
    1     1.000000     0.000000     1.000000     0.000000     0.000000     0.000000     0.000000     0.000000

 Subroutine IBZKPT returns following result:

 Found      4 irreducible k-points:

 Following reciprocal coordinates:
            Coordinates               Weight
  0.000000  0.000000  0.000000      1.000000
  0.500000 -0.000000  0.000000      1.000000
  0.000000  0.500000  0.000000      1.000000
  0.500000  0.500000  0.000000      1.000000

 Following cartesian coordinates:
            Coordinates               Weight
  0.000000  0.000000  0.000000      1.000000
  0.047348  0.027337  0.000000      1.000000
  0.000000  0.054673  0.000000      1.000000
  0.047348  0.082010  0.000000      1.000000

 TETIRR: Found     12 inequivalent tetrahedra from       24
 BZINTS: Fermi energy:  2.696802;641.000000 electrons
         Band energy:-505.777208;  BLOECHL correction: -0.062416