 vasp.5.4.4.18Apr17-6-g9f103f2a35 (build Nov 30 2020 22:55:02) complex

 executed on             LinuxIFC date 2023.09.08  21:36:37

 INCAR:
 POTCAR:    PAW_PBE Pt 04Feb2005
 POTCAR:    PAW_PBE Pt 04Feb2005
   VRHFIN =Pt: s1d9

   TITEL  = PAW_PBE Pt 04Feb2005
   POMASS =  195.080; ZVAL   =   10.000    mass and valenz
   ENMAX  =  230.283; ENMIN  =  172.712 eV

 Optimization of the real space projectors (new method)

 maximal supplied QI-value         = 14.36
 optimisation between [QCUT,QGAM] = [ 11.92, 23.98] = [ 39.79,161.09] Ry
 Optimized for a Real-space Cutoff    1.49 Angstroem

   l    n(q)    QCUT    max X(q) W(low)/X(q) W(high)/X(q)  e(spline)
   2     10    11.920    66.195    0.79E-04    0.18E-03    0.24E-06
   2     10    11.920    64.643    0.81E-04    0.19E-03    0.24E-06
   0     11    11.920    95.520    0.28E-04    0.54E-04    0.18E-06
   0     11    11.920    63.403    0.27E-04    0.52E-04    0.17E-06
   1     10    11.920    19.961    0.18E-04    0.11E-03    0.23E-06
   1     10    11.920    13.289    0.25E-04    0.87E-04    0.19E-06
  PAW_PBE Pt 04Feb2005                  :

 POSCAR: Pt111
  positions in direct lattice
  velocities in cartesian coordinates
 exchange correlation table for  LEXCH =        8
   RHO(1)=    0.500       N(1)  =     2000
   RHO(2)=  100.500       N(2)  =     4000

 ion  position               nearest neighbor table
   1  0.785  0.869  0.333-  72 2.69   2 2.69  73 2.69  56 2.69  43 2.69   3 2.69  20 2.81  71 2.81
                            55 2.81  27 2.84  35 2.84  34 2.85
   2  0.035  0.869  0.333-  57 2.69  47 2.69   1 2.69  23 2.69  72 2.69   3 2.69  55 2.81  65 2.81
                            68 2.81  29 2.84  39 2.84  27 2.85
   3  0.035  0.619  0.333-  15 2.69  57 2.69   9 2.69  56 2.69   1 2.69   2 2.69  12 2.81  55 2.81
                            76 2.81  39 2.84  35 2.84  28 2.85
   4  0.787  0.868  0.012-  44 2.69  75 2.69  74 2.69  58 2.69   5 2.69   6 2.69  78 2.84  21 2.84
                            19 2.85
   5  0.037  0.868  0.012-  59 2.69   6 2.69  24 2.69  48 2.69   4 2.69  74 2.69  70 2.84  49 2.84
                            78 2.85
   6  0.037  0.618  0.012-  59 2.69   5 2.69  10 2.69  58 2.69  18 2.69   4 2.69  46 2.84  70 2.84
                            21 2.85
   7  0.619  0.202  0.120-  11 2.69  78 2.69  61 2.69  22 2.69  19 2.69  53 2.69  71 2.80  79 2.80
                            80 2.81  42 2.84  44 2.84  74 2.85
   8  0.370  0.952  0.120-  19 2.69  53 2.69  60 2.69  25 2.69  54 2.69  49 2.69  66 2.80  69 2.80
                            26 2.81  16 2.84  24 2.84  75 2.85
   9  0.034  0.369  0.333-  47 2.69  15 2.69   3 2.69  56 2.69  63 2.69  13 2.69  12 2.81  77 2.81
                            62 2.81  33 2.84  28 2.84  30 2.84
  10  0.037  0.368  0.012-  16 2.69  18 2.69   6 2.69  48 2.69  58 2.69  64 2.69  54 2.84  46 2.84
                            45 2.85
  11  0.869  0.202  0.120-  78 2.69  22 2.69   7 2.69  49 2.69  45 2.69  54 2.69  65 2.81  77 2.81
                            79 2.81  64 2.84  74 2.84  48 2.85
  12  0.952  0.536  0.227-  62 2.69  67 2.69  77 2.69  20 2.69  55 2.69  76 2.69   9 2.81   3 2.81
                            21 2.81  45 2.81  56 2.81  46 2.81
  13  0.284  0.119  0.333-  23 2.69  47 2.69   9 2.69  15 2.69  43 2.69  73 2.69  62 2.80  26 2.81
                            69 2.81  31 2.84  36 2.84  33 2.85
  14  0.534  0.619  0.333-  23 2.69  73 2.69  56 2.69  63 2.69  57 2.69  41 2.69  51 2.80  66 2.80
                            67 2.81  52 2.84  38 2.84  37 2.85
  15  0.284  0.370  0.333-   3 2.69   9 2.69  57 2.69  13 2.69  41 2.69  43 2.69  76 2.81  62 2.81
                            80 2.82  36 2.84  50 2.84  28 2.85
  16  0.287  0.118  0.012-  10 2.69  48 2.69  18 2.69  24 2.69  44 2.69  75 2.69   8 2.84  53 2.84
                            54 2.85
  17  0.537  0.618  0.012-  75 2.69  58 2.69  64 2.69  42 2.69  24 2.69  59 2.69  22 2.84  25 2.84
                            60 2.85
  18  0.287  0.368  0.012-  10 2.69  16 2.69  44 2.69  42 2.69   6 2.69  59 2.69  53 2.84  61 2.84
                            46 2.85
  19  0.619  0.952  0.120-   8 2.69  25 2.69  53 2.69   7 2.69  78 2.69  21 2.69  20 2.80  71 2.80
                            69 2.81  44 2.84  75 2.84   4 2.85
  20  0.702  0.786  0.227-  66 2.69  71 2.69  69 2.69  67 2.69  12 2.69  55 2.69  19 2.80  25 2.80
                             1 2.81  56 2.81  73 2.81  21 2.81
  21  0.870  0.702  0.120-  70 2.69  46 2.69  78 2.69  25 2.69  45 2.69  19 2.69  55 2.81  12 2.81
                            20 2.81  58 2.84   4 2.84   6 2.85
  22  0.620  0.452  0.120-  11 2.69  45 2.69   7 2.69  60 2.69  61 2.69  25 2.69  79 2.80  67 2.80
                            51 2.81  17 2.84  42 2.84  64 2.85
  23  0.285  0.869  0.333-  14 2.69  13 2.69  73 2.69   2 2.69  57 2.69  47 2.69  26 2.80  68 2.80
                            66 2.81  31 2.84  37 2.84  29 2.85
  24  0.287  0.868  0.012-   5 2.69  48 2.69  16 2.69  59 2.69  75 2.69  17 2.69  60 2.84   8 2.84
                            49 2.85
  25  0.620  0.702  0.120-  19 2.69  60 2.69   8 2.69  45 2.69  21 2.69  22 2.69  67 2.80  20 2.80
                            66 2.81  17 2.84  75 2.84  58 2.85
  26  0.202  0.036  0.227-  62 2.69  69 2.69  68 2.69  65 2.69  77 2.69  66 2.69  54 2.80  23 2.80
                            13 2.81  49 2.81  47 2.81   8 2.81
  27  0.867  0.953  0.441-  35 2.69  39 2.69  34 2.69  40 2.69  32 2.69  29 2.69   1 2.84  72 2.84
                             2 2.85
  28  0.117  0.453  0.442-  33 2.69  36 2.69  30 2.69  35 2.69  50 2.69  39 2.69   9 2.84   3 2.85
                            15 2.85
  29  0.117  0.953  0.441-  33 2.69  37 2.69  31 2.69  32 2.69  39 2.69  27 2.69  47 2.84   2 2.84
                            23 2.85
  30  0.867  0.453  0.441-  28 2.69  38 2.69  32 2.69  33 2.69  52 2.69  35 2.69  63 2.84  56 2.84
                             9 2.84
  31  0.367  0.953  0.441-  52 2.69  34 2.69  29 2.69  37 2.69  36 2.69  33 2.69  13 2.84  23 2.84
                            73 2.85
  32  0.867  0.203  0.441-  33 2.69  30 2.69  40 2.69  29 2.69  38 2.69  27 2.69  63 2.84  72 2.84
                            47 2.85
  33  0.117  0.203  0.441-  29 2.69  32 2.69  28 2.69  30 2.69  36 2.69  31 2.69   9 2.84  47 2.84
                            13 2.85
  34  0.617  0.953  0.441-  31 2.69  52 2.69  27 2.69  36 2.69  40 2.69  35 2.69  43 2.84  73 2.84
                             1 2.85
  35  0.867  0.703  0.441-  39 2.69  27 2.69  28 2.69  34 2.69  30 2.69  52 2.69  56 2.84   1 2.84
                             3 2.84
  36  0.367  0.203  0.441-  50 2.69  28 2.69  40 2.69  34 2.69  31 2.69  33 2.69  15 2.84  13 2.84
                            43 2.85
  37  0.367  0.703  0.441-  29 2.69  39 2.69  31 2.69  38 2.69  50 2.69  52 2.69  57 2.84  23 2.84
                            14 2.85
  38  0.617  0.453  0.441-  30 2.69  40 2.69  50 2.69  37 2.69  52 2.69  32 2.69  41 2.84  14 2.84
                            63 2.85
  39  0.117  0.703  0.441-  35 2.69  27 2.69  37 2.69  29 2.69  28 2.69  50 2.69   3 2.84   2 2.84
                            57 2.85
  40  0.617  0.203  0.441-  50 2.69  36 2.69  38 2.69  32 2.69  27 2.69  34 2.69  41 2.84  43 2.84
                            72 2.85
  41  0.534  0.369  0.333-  57 2.69  43 2.69  63 2.69  72 2.69  14 2.69  15 2.69  51 2.80  80 2.80
                            79 2.81  40 2.84  38 2.84  50 2.85
  42  0.537  0.368  0.012-  64 2.69  17 2.69  18 2.69  59 2.69  74 2.69  44 2.69   7 2.84  22 2.84
                            61 2.85
  43  0.534  0.119  0.333-  41 2.69  73 2.69  72 2.69   1 2.69  13 2.69  15 2.69  80 2.80  69 2.81
                            71 2.81  40 2.84  34 2.84  36 2.85
  44  0.537  0.118  0.012-   4 2.69  74 2.69  18 2.69  75 2.69  42 2.69  16 2.69  19 2.84   7 2.84
                            53 2.85
  45  0.870  0.452  0.120-  22 2.69  54 2.69  25 2.69  21 2.69  46 2.69  11 2.69  77 2.80  12 2.81
                            67 2.81  58 2.84  64 2.85  10 2.85
  46  0.120  0.452  0.121-  61 2.69  70 2.69  21 2.69  53 2.69  45 2.69  54 2.69  62 2.80  76 2.81
                            12 2.81   6 2.84  10 2.84  18 2.85
  47  0.034  0.119  0.333-   9 2.69  72 2.69  63 2.69  13 2.69   2 2.69  23 2.69  77 2.81  65 2.81
                            26 2.81  29 2.84  33 2.84  32 2.85
  48  0.037  0.118  0.012-  16 2.69  24 2.69  64 2.69  74 2.69  10 2.69   5 2.69  49 2.84  54 2.85
                            11 2.85
  49  0.119  0.952  0.120-  78 2.69  70 2.69  11 2.69  54 2.69   8 2.69  60 2.69  68 2.81  26 2.81
                            65 2.81  48 2.84   5 2.84  24 2.85
  50  0.367  0.453  0.441-  36 2.69  40 2.69  38 2.69  37 2.69  28 2.69  39 2.69  15 2.84  57 2.84
                            41 2.85
  51  0.452  0.536  0.227-  79 2.69  67 2.69  76 2.69  68 2.69  80 2.69  66 2.69  60 2.80  14 2.80
                            61 2.80  41 2.80  57 2.81  22 2.81
  52  0.617  0.703  0.441-  31 2.69  34 2.69  38 2.69  30 2.69  37 2.69  35 2.69  14 2.84  73 2.84
                            56 2.85
  53  0.369  0.202  0.121-  54 2.69  19 2.69   8 2.69  46 2.69  61 2.69   7 2.69  69 2.80  80 2.80
                            62 2.81  18 2.84  16 2.84  44 2.85
  54  0.119  0.202  0.120-  53 2.69  45 2.69   8 2.69  49 2.69  46 2.69  11 2.69  26 2.80  62 2.81
                            77 2.81  10 2.84  48 2.85  16 2.85
  55  0.952  0.786  0.227-  65 2.69  68 2.69  76 2.69  12 2.69  20 2.69  71 2.69   2 2.81  21 2.81
                            78 2.81   3 2.81  70 2.81   1 2.81
  56  0.784  0.619  0.333-  73 2.69   9 2.69  14 2.69   1 2.69   3 2.69  63 2.69  67 2.81  20 2.81
                            12 2.81  35 2.84  30 2.84  52 2.85
  57  0.284  0.619  0.333-   3 2.69  41 2.69  15 2.69   2 2.69  14 2.69  23 2.69  76 2.80  68 2.81
                            51 2.81  37 2.84  50 2.84  39 2.85
  58  0.787  0.618  0.012-  17 2.69  75 2.69   6 2.69   4 2.69  10 2.69  64 2.69  45 2.84  21 2.84
                            25 2.85
  59  0.287  0.618  0.012-   5 2.69   6 2.69  24 2.69  42 2.69  18 2.69  17 2.69  61 2.84  60 2.84
                            70 2.85
  60  0.370  0.702  0.120-   8 2.69  25 2.69  22 2.69  61 2.69  70 2.69  49 2.69  51 2.80  66 2.80
                            68 2.81  24 2.84  59 2.84  17 2.85
  61  0.370  0.452  0.121-  46 2.69   7 2.69  70 2.69  53 2.69  60 2.69  22 2.69  80 2.80  51 2.80
                            76 2.81  59 2.84  18 2.84  42 2.85
  62  0.202  0.286  0.227-  26 2.69  12 2.69  69 2.69  77 2.69  80 2.69  76 2.69  13 2.80  46 2.80
                            54 2.81  15 2.81   9 2.81  53 2.81
  63  0.784  0.369  0.333-  72 2.69  47 2.69   9 2.69  41 2.69  14 2.69  56 2.69  67 2.81  79 2.81
                            77 2.81  32 2.84  30 2.84  38 2.85
  64  0.787  0.368  0.012-  74 2.69  17 2.69  48 2.69  42 2.69  58 2.69  10 2.69  11 2.84  45 2.85
                            22 2.85
  65  0.952  0.036  0.227-  55 2.69  77 2.69  71 2.69  26 2.69  68 2.69  79 2.69  11 2.81  78 2.81
                             2 2.81  47 2.81  49 2.81  72 2.81
[...]

  length of vectors
    10.760000000 10.760000187 22.000000000     0.107314176  0.107314174  0.045454545

 FORCES acting on ions
    electron-ion (+dipol)            ewald-force                    non-local-force                 convergence-correction
   0.457E-01 0.759E-02 -.135E+04   -.418E-01 -.263E-01 0.135E+04   0.685E-03 -.599E-02 0.503E+00   -.568E-02 0.211E-01 -.419E+00
   0.342E-01 -.202E+00 -.135E+04   -.188E-01 0.216E+00 0.135E+04   0.229E-02 -.425E-02 0.505E+00   -.180E-01 -.842E-02 -.416E+00
   0.318E+00 -.389E+00 -.135E+04   -.334E+00 0.379E+00 0.135E+04   -.343E-02 0.122E-01 0.492E+00   0.105E-01 0.105E-01 -.421E+00
   -.330E+00 0.710E+00 0.267E+04   0.356E+00 -.690E+00 -.267E+04   0.150E-02 -.129E-01 -.461E+00   -.163E-01 -.176E-01 0.173E+00
   -.529E-02 0.116E+00 0.267E+04   0.109E-01 -.145E+00 -.267E+04   -.200E-01 0.271E-01 -.463E+00   0.695E-02 0.148E-01 0.168E+00
   -.399E-01 0.384E+00 0.267E+04   0.793E-01 -.381E+00 -.267E+04   -.109E-01 0.918E-02 -.466E+00   -.328E-01 -.776E-02 0.179E+00
   0.510E+00 0.253E-01 0.135E+04   -.508E+00 -.215E-01 -.135E+04   -.153E-01 0.429E-02 -.508E+00   0.205E-02 -.972E-02 0.727E-01
   0.352E+00 -.111E+00 0.135E+04   -.353E+00 0.685E-01 -.135E+04   -.938E-02 0.180E-02 -.508E+00   0.400E-02 0.397E-01 0.354E-01
   0.855E-01 -.469E-01 -.135E+04   -.133E+00 0.563E-01 0.135E+04   0.642E-02 -.346E-03 0.492E+00   0.407E-01 -.509E-02 -.430E+00
   0.226E-01 -.302E+00 0.267E+04   0.222E-01 0.291E+00 -.267E+04   -.277E-01 0.164E-01 -.466E+00   -.311E-01 0.332E-05 0.189E+00
   -.763E+00 -.101E+00 0.135E+04   0.749E+00 0.848E-01 -.135E+04   0.164E-01 0.119E-01 -.490E+00   0.196E-01 0.111E-01 0.419E-01
   -.307E+00 -.146E-01 -.456E+00   0.284E+00 0.166E-01 0.823E+00   0.764E-02 0.451E-02 -.913E-02   0.248E-01 -.113E-02 -.360E+00
   -.370E+00 0.211E+00 -.135E+04   0.329E+00 -.199E+00 0.135E+04   0.146E-01 -.101E-01 0.502E+00   0.366E-01 -.472E-02 -.407E+00
   0.666E-01 0.336E+00 -.135E+04   -.612E-01 -.356E+00 0.135E+04   0.190E-02 -.110E-01 0.515E+00   -.128E-01 0.210E-01 -.375E+00
   -.453E+00 0.519E+00 -.135E+04   0.435E+00 -.493E+00 0.135E+04   0.221E-01 -.201E-01 0.484E+00   0.881E-02 -.217E-01 -.413E+00
   -.381E+00 -.292E-01 0.267E+04   0.409E+00 0.229E-01 -.267E+04   0.938E-02 0.855E-03 -.466E+00   -.199E-01 -.623E-02 0.176E+00
   0.108E+01 -.218E+00 0.267E+04   -.109E+01 0.203E+00 -.267E+04   -.401E-01 0.156E-01 -.466E+00   0.317E-01 0.651E-03 0.148E+00
   0.253E-01 -.331E+00 0.267E+04   0.168E-01 0.317E+00 -.267E+04   -.925E-02 0.238E-01 -.466E+00   -.214E-01 -.840E-02 0.180E+00
   -.303E+00 0.625E-01 0.135E+04   0.301E+00 -.697E-01 -.135E+04   0.104E-01 0.301E-02 -.504E+00   0.774E-02 0.457E-02 0.651E-01
   -.849E+00 0.760E-01 0.171E+01   0.816E+00 -.981E-01 -.139E+01   0.121E-01 -.655E-02 0.371E-02   0.408E-01 0.249E-01 -.328E+00
   0.164E-01 -.571E-01 0.135E+04   -.803E-02 0.797E-01 -.135E+04   -.101E-01 0.822E-02 -.500E+00   -.261E-02 -.221E-01 0.558E-01
   0.162E+00 -.294E+00 0.135E+04   -.186E+00 0.315E+00 -.135E+04   -.107E-01 0.161E-01 -.507E+00   0.314E-01 -.272E-01 0.226E-01
   0.182E+00 -.128E+00 -.135E+04   -.191E+00 0.117E+00 0.135E+04   -.338E-02 -.315E-02 0.509E+00   0.357E-02 0.176E-01 -.382E+00
   -.158E+00 0.277E+00 0.267E+04   0.153E+00 -.294E+00 -.267E+04   -.392E-02 0.803E-03 -.468E+00   0.178E-01 0.110E-01 0.153E+00
   -.121E+00 0.950E-01 0.135E+04   0.906E-01 -.848E-01 -.135E+04   -.616E-02 -.857E-03 -.506E+00   0.386E-01 -.137E-01 0.128E-01
   0.273E+00 -.182E+00 -.108E-01   -.288E+00 0.153E+00 0.348E+00   0.272E-02 -.786E-02 -.198E-02   0.922E-02 0.341E-01 -.335E+00
   -.358E-02 -.642E+00 -.267E+04   0.147E-01 0.659E+00 0.267E+04   0.183E-01 0.792E-02 0.465E+00   -.260E-01 -.141E-01 -.766E-01
   0.545E-01 -.428E+00 -.267E+04   -.989E-01 0.429E+00 0.267E+04   0.196E-01 0.961E-02 0.466E+00   0.310E-01 -.368E-02 -.652E-01
   0.430E+00 0.989E-01 -.267E+04   -.458E+00 -.590E-01 0.267E+04   -.746E-02 -.126E-01 0.463E+00   0.262E-01 -.284E-01 -.646E-01
   0.674E+00 -.662E+00 -.267E+04   -.692E+00 0.648E+00 0.267E+04   0.572E-02 0.218E-02 0.463E+00   0.103E-01 0.243E-01 -.480E-01
   -.620E-01 -.110E+00 -.267E+04   0.300E-01 0.119E+00 0.267E+04   -.463E-02 0.106E-01 0.462E+00   0.250E-01 -.313E-02 -.640E-01
   0.743E+00 0.305E+00 -.267E+04   -.737E+00 -.287E+00 0.267E+04   -.403E-02 -.583E-02 0.464E+00   -.122E-01 -.140E-01 -.590E-01
   -.106E+00 0.657E+00 -.267E+04   0.482E-01 -.624E+00 0.267E+04   0.236E-01 -.119E-01 0.464E+00   0.460E-01 -.241E-01 -.619E-01
   -.573E+00 0.199E+00 -.267E+04   0.576E+00 -.202E+00 0.267E+04   0.231E-01 -.644E-02 0.462E+00   -.253E-01 0.116E-01 -.772E-01
   0.117E+01 -.454E+00 -.267E+04   -.116E+01 0.433E+00 0.267E+04   -.305E-01 -.513E-02 0.463E+00   -.382E-02 0.221E-01 -.668E-01
   -.200E+00 0.122E+01 -.267E+04   0.173E+00 -.117E+01 0.267E+04   0.147E-02 -.336E-01 0.465E+00   0.133E-01 -.213E-01 -.752E-01
   -.551E+00 0.142E+00 -.267E+04   0.517E+00 -.148E+00 0.267E+04   0.300E-01 -.789E-02 0.463E+00   0.353E-02 0.109E-01 -.512E-01
   -.293E+00 -.668E-01 -.267E+04   0.316E+00 0.542E-01 0.267E+04   0.678E-02 -.337E-02 0.462E+00   -.334E-01 0.225E-01 -.466E-01
   -.401E+00 -.407E+00 -.267E+04   0.375E+00 0.422E+00 0.267E+04   0.227E-01 -.129E-01 0.463E+00   0.112E-01 -.989E-02 -.683E-01
   -.694E+00 0.689E+00 -.267E+04   0.729E+00 -.667E+00 0.267E+04   0.126E-01 -.131E-01 0.463E+00   -.472E-01 -.102E-01 -.739E-01
   -.416E-01 0.410E-01 -.135E+04   0.777E-01 -.261E-02 0.135E+04   0.512E-02 -.276E-02 0.503E+00   -.431E-01 -.328E-01 -.405E+00
   0.823E+00 -.665E+00 0.267E+04   -.835E+00 0.648E+00 -.267E+04   -.173E-01 0.883E-02 -.464E+00   0.292E-01 0.763E-02 0.165E+00
   0.148E+00 -.722E-03 -.135E+04   -.145E+00 0.169E-01 0.135E+04   -.167E-02 -.379E-02 0.500E+00   -.105E-01 -.803E-02 -.413E+00
   0.109E+01 -.781E+00 0.267E+04   -.106E+01 0.773E+00 -.267E+04   -.323E-01 0.256E-01 -.462E+00   -.103E-01 -.129E-01 0.174E+00
   -.269E+00 0.162E+00 0.135E+04   0.251E+00 -.155E+00 -.135E+04   -.183E-02 0.191E-02 -.505E+00   0.239E-01 -.138E-01 0.282E-01
   0.134E+00 0.881E-01 0.135E+04   -.979E-01 -.751E-01 -.135E+04   -.884E-02 -.478E-02 -.501E+00   -.308E-01 -.143E-01 0.676E-01
   0.160E+00 0.319E+00 -.135E+04   -.178E+00 -.290E+00 0.135E+04   0.575E-02 -.143E-01 0.491E+00   0.132E-01 -.238E-01 -.426E+00
   -.422E+00 -.612E-01 0.267E+04   0.419E+00 0.311E-01 -.267E+04   -.974E-02 0.920E-02 -.462E+00   0.840E-02 0.209E-01 0.177E+00
   -.428E+00 -.596E-01 0.135E+04   0.435E+00 0.230E-01 -.135E+04   0.140E-01 -.677E-04 -.503E+00   -.571E-02 0.365E-01 0.439E-01
   -.717E+00 -.419E+00 -.267E+04   0.708E+00 0.429E+00 0.267E+04   0.115E-01 0.136E-01 0.463E+00   -.788E-02 -.606E-02 -.632E-01
   0.197E+00 0.613E-01 -.210E-01   -.168E+00 -.274E-01 0.351E+00   0.138E-02 0.315E-02 -.188E-02   -.305E-01 -.331E-01 -.327E+00
   -.484E+00 0.410E+00 -.267E+04   0.481E+00 -.445E+00 0.267E+04   0.190E-01 -.197E-01 0.460E+00   -.109E-01 0.436E-01 -.501E-01
   -.758E-01 -.228E+00 0.135E+04   0.101E+00 0.218E+00 -.135E+04   0.542E-02 0.438E-02 -.515E+00   -.191E-01 0.604E-02 0.764E-01
   0.294E+00 -.318E-01 0.135E+04   -.292E+00 0.499E-02 -.135E+04   -.842E-02 -.224E-02 -.507E+00   -.251E-02 0.248E-01 0.484E-01
   0.626E+00 0.102E+00 0.681E+00   -.611E+00 -.102E+00 -.360E+00   -.189E-01 -.444E-02 0.754E-03   -.183E-01 0.213E-02 -.326E+00
   -.303E-01 -.186E-01 -.135E+04   0.124E-02 -.141E-01 0.135E+04   0.146E-02 -.707E-02 0.509E+00   0.288E-01 0.362E-01 -.410E+00
   -.381E+00 0.155E-01 -.135E+04   0.399E+00 -.932E-02 0.135E+04   0.185E-01 0.336E-03 0.502E+00   -.265E-01 -.403E-02 -.389E+00
   -.385E+00 0.399E+00 0.267E+04   0.416E+00 -.394E+00 -.267E+04   -.116E-01 0.105E-01 -.467E+00   -.153E-01 -.170E-01 0.173E+00
   -.276E+00 0.377E+00 0.267E+04   0.269E+00 -.393E+00 -.267E+04   0.606E-02 0.141E-02 -.465E+00   0.163E-01 0.786E-02 0.156E+00
   0.401E+00 0.202E-01 0.135E+04   -.394E+00 -.279E-01 -.135E+04   -.121E-01 0.995E-03 -.514E+00   -.201E-02 0.453E-02 0.200E-01
[...]
   -.349E+00 0.480E+00 0.109E+01   0.313E+00 -.467E+00 -.737E+00   0.178E-02 -.602E-02 0.260E-02   0.376E-01 -.160E-01 -.359E+00
   -.174E+00 -.214E+00 -.339E+00   0.210E+00 0.204E+00 0.662E+00   0.151E-01 -.656E-03 -.826E-02   -.375E-01 0.141E-01 -.318E+00
   -.695E-01 -.465E+00 0.242E+00   0.474E-01 0.436E+00 0.725E-01   0.250E-02 0.157E-02 0.343E-02   0.213E-01 0.364E-01 -.315E+00
   -.168E+00 0.152E+00 0.135E+04   0.204E+00 -.149E+00 -.135E+04   0.438E-02 -.162E-03 -.508E+00   -.341E-01 -.480E-02 0.629E-01
   -.191E+00 0.231E+00 0.214E+01   0.203E+00 -.230E+00 -.183E+01   0.536E-02 -.974E-02 0.970E-02   -.121E-01 0.666E-03 -.315E+00
   -.138E-01 0.186E-01 -.135E+04   0.509E-01 0.130E-01 0.135E+04   0.251E-02 -.340E-02 0.497E+00   -.393E-01 -.280E-01 -.430E+00
   -.184E+00 -.299E+00 -.135E+04   0.161E+00 0.260E+00 0.135E+04   0.304E-02 0.218E-02 0.509E+00   0.201E-01 0.465E-01 -.383E+00
   0.995E-02 0.712E-01 0.267E+04   -.118E-01 -.965E-01 -.267E+04   -.162E-01 0.695E-02 -.464E+00   0.218E-01 0.125E-01 0.175E+00
   0.765E+00 -.565E+00 0.267E+04   -.739E+00 0.567E+00 -.267E+04   -.221E-01 0.266E-01 -.462E+00   -.839E-02 -.198E-01 0.156E+00
   0.456E+00 0.398E+00 -.168E+01   -.428E+00 -.380E+00 0.202E+01   -.672E-02 -.108E-01 -.138E-01   -.319E-01 -.190E-01 -.329E+00
   -.738E-01 0.198E+00 0.464E+00   0.437E-01 -.191E+00 -.944E-01   0.808E-02 -.366E-02 -.246E-02   0.235E-01 -.716E-02 -.371E+00
   0.340E+00 0.391E+00 0.135E+04   -.332E+00 -.397E+00 -.135E+04   -.136E-01 -.497E-02 -.501E+00   -.603E-02 0.465E-02 0.689E-01
   -.415E+00 0.333E+00 0.175E+01   0.432E+00 -.296E+00 -.141E+01   0.124E-01 -.344E-02 0.157E-01   -.152E-01 -.391E-01 -.345E+00
   0.374E+00 0.950E-01 -.491E+00   -.357E+00 -.602E-01 0.819E+00   -.356E-02 -.456E-02 0.239E-02   -.217E-01 -.322E-01 -.321E+00
   0.106E-01 -.203E-01 0.941E+01   -.896E-13 -.168E-12 -.685E-11   0.225E-01 0.392E-01 -.108E+00   -.465E-03 0.486E-03 -.940E+01

 POSITION                                       TOTAL-FORCE (eV/Angst)
     13.11916      8.10182      7.32276        -0.001140     -0.004039      0.009926
      5.04918      8.10162      7.32485        -0.000831      0.001687      0.019510
      3.70384      5.77107      7.32850        -0.008725      0.011001      0.012787
     13.13766      8.08693      0.26161         0.011273     -0.009913      0.000623
      5.06878      8.08463      0.26460        -0.007813      0.012449     -0.007111
      3.72371      5.75604      0.26713        -0.005102      0.004748     -0.009575
      7.75122      1.87999      2.64659        -0.011153     -0.001935     -0.024914
      9.09632      8.86850      2.64908        -0.007256     -0.000396     -0.021858
      2.35763      3.44242      7.32884        -0.000592      0.003478      0.013282
      2.37985      3.42631      0.26860        -0.014354      0.004586     -0.010683
     10.44000      1.87955      2.64479         0.021240      0.006780     -0.014038
     13.12410      4.99138      4.98901         0.008525      0.004768     -0.000648
      3.70292      1.11311      7.32772         0.009428     -0.002514      0.019871
      9.08365      5.77269      7.32390        -0.005794     -0.010227      0.024788
      5.04697      3.44325      7.33097         0.012439     -0.015052      0.007485
      3.72233      1.09737      0.26748         0.015968     -0.011239     -0.008828
      9.10500      5.75603      0.26541        -0.014648      0.000794     -0.005819
      5.06850      3.42582      0.26881         0.010514      0.001663     -0.008019
     11.78517      8.86891      2.64601         0.016748      0.000451     -0.022070
     11.77938      7.32155      4.98479         0.020290     -0.004060     -0.004554
     13.13191      6.53911      2.64788        -0.004616      0.008378     -0.014035
      9.09694      4.20884      2.64779        -0.004003      0.009213     -0.023238
      7.73953      8.10156      7.32550        -0.009973      0.003222      0.020791
      7.75798      8.08595      0.26640         0.007978     -0.004605     -0.005511
     10.44181      6.53937      2.64730         0.002327     -0.004806     -0.021142
      2.36425      0.33226      4.98787        -0.003817     -0.002362      0.001368
     14.45745      8.88082      9.70492         0.002960      0.010438      0.011096
      3.69676      4.22090      9.71438         0.005617      0.006719      0.009722
      6.38889      8.88131      9.70834        -0.009794     -0.001234      0.006881
     11.76734      4.22206      9.70825        -0.002617      0.011743      0.009520
      9.07899      8.88004      9.70919        -0.011639      0.015771      0.003942
     10.42315      1.89231      9.70777        -0.010404     -0.002112      0.007761
      2.35197      1.89215      9.71023         0.011120     -0.003400      0.011570
     11.76755      8.88123      9.70620        -0.000190      0.002545      0.007499
     13.11453      6.55186      9.70779        -0.023101     -0.003502      0.007361
      5.04337      1.89308      9.71124        -0.012288     -0.010589      0.005305
      7.73187      6.55150      9.70924        -0.000750     -0.003721      0.004331
      9.07782      4.22213      9.70729        -0.003990      0.005870      0.005299
      5.04216      6.55191      9.71037         0.007771     -0.007865      0.007345
      7.73296      1.89257      9.70527        -0.000041     -0.001688      0.011827
      7.73786      3.44275      7.32522        -0.001733      0.002052      0.015074
      7.75850      3.42728      0.26453        -0.001515     -0.000809     -0.003447
      6.39356      1.11295      7.32470        -0.009364      0.004094      0.011612
      6.41385      1.09666      0.26377        -0.007142      0.004804     -0.003124
     11.78629      4.20949      2.64872         0.003542     -0.004780     -0.017626
      3.71692      4.20991      2.65221        -0.004186     -0.006125     -0.006253
      1.01318      1.11327      7.32609        -0.000124     -0.008837      0.008133
      1.03364      1.09689      0.26321        -0.004386      0.000248     -0.001727
      6.40532      8.86868      2.64857         0.014981      0.000114     -0.017069
      6.38788      4.22079      9.71292        -0.005009      0.016637      0.003626
      7.74486      4.99161      4.98770        -0.001299      0.003204      0.002375
     10.42245      6.55235      9.70688         0.004312     -0.010826      0.003914
      5.06044      1.87965      2.65142         0.011187      0.000094     -0.022430
      2.37107      1.87992      2.65059        -0.009340     -0.004065     -0.014697
     14.47080      7.32109      4.98652        -0.021754     -0.002803     -0.002242
     11.77364      5.77245      7.32433         0.001731     -0.004352      0.022843
      6.39300      5.77175      7.32823         0.008502      0.002079      0.023771
     11.79400      5.75603      0.26438         0.004164     -0.001760     -0.005317
      6.41280      5.75652      0.26708         0.013818     -0.006250     -0.003208
      7.75218      6.53890      2.65035        -0.007586     -0.002103     -0.022361
[...]
      9.09089      7.32125      4.98650        -0.017883      0.001170     -0.003412
     10.43427      4.99210      4.98569         0.003676     -0.010355     -0.001733
      6.39987      7.32082      4.98871         0.012993      0.003623     -0.002305
      5.05407      0.33216      4.98685         0.001653      0.008707      0.004375
      5.06136      6.53911      2.65062         0.005807     -0.002232     -0.018230
      7.74372      0.33272      4.98352         0.005484     -0.008283      0.000436
      9.08361      1.11298      7.32277         0.000281     -0.000444      0.008129
     10.42912      8.10156      7.32374        -0.000258      0.008693      0.019170
      9.10352      1.09730      0.26062         0.003150     -0.005725     -0.003935
     10.44844      8.08497      0.26180        -0.005051      0.009301      0.001866
      5.05528      4.99186      4.99108        -0.010786     -0.012115      0.002731
     11.77814      2.66198      4.98722         0.001378     -0.004468     -0.002879
     14.47621      8.86921      2.64561        -0.011288     -0.006514     -0.022927
      9.08821      2.66224      4.98376         0.013350     -0.006071      0.006487
      6.39896      2.66226      4.98806        -0.008172     -0.002467      0.009596
    total drift:                                0.032662      0.019455     -0.096923

  FREE ENERGIE OF THE ION-ELECTRON SYSTEM (eV)
  free  energy   TOTEN  =      -515.30529944 eV

  energy  without entropy=     -515.28136283  energy(sigma->0) =     -515.29732057

 reached required accuracy - stopping structural energy minimisation