 vasp.5.4.4.18Apr17-6-g9f103f2a35 (build Nov 30 2020 22:55:02) complex

 executed on             LinuxIFC date 2023.08.08  09:28:12

 INCAR:
 POTCAR:    PAW_PBE Pt 04Feb2005
 POTCAR:    PAW_PBE H 15Jun2001

 POTCAR:    PAW_PBE Pt 04Feb2005
   VRHFIN =Pt: s1d9

   TITEL  = PAW_PBE Pt 04Feb2005
   POMASS =  195.080; ZVAL   =   10.000    mass and valenz
   ENMAX  =  230.283; ENMIN  =  172.712 eV

 POTCAR:    PAW_PBE H 15Jun2001
   VRHFIN =H: ultrasoft test

   TITEL  = PAW_PBE H 15Jun2001
   POMASS =    1.000; ZVAL   =    1.000    mass and valenz
   ENMAX  =  250.000; ENMIN  =  200.000 eV

 Optimization of the real space projectors (new method)

 maximal supplied QI-value         = 14.36
 optimisation between [QCUT,QGAM] = [ 11.92, 23.98] = [ 39.79,161.09] Ry
 Optimized for a Real-space Cutoff    1.49 Angstroem

   l    n(q)    QCUT    max X(q) W(low)/X(q) W(high)/X(q)  e(spline)
   2     10    11.920    66.195    0.79E-04    0.18E-03    0.24E-06
   2     10    11.920    64.643    0.81E-04    0.19E-03    0.24E-06
   0     11    11.920    95.520    0.28E-04    0.54E-04    0.18E-06
   0     11    11.920    63.403    0.27E-04    0.52E-04    0.17E-06
   1     10    11.920    19.961    0.18E-04    0.11E-03    0.23E-06
   1     10    11.920    13.289    0.25E-04    0.87E-04    0.19E-06
 Optimization of the real space projectors (new method)

 maximal supplied QI-value         = 34.20
 optimisation between [QCUT,QGAM] = [ 11.97, 23.94] = [ 40.13,160.53] Ry
 Optimized for a Real-space Cutoff    1.18 Angstroem

   l    n(q)    QCUT    max X(q) W(low)/X(q) W(high)/X(q)  e(spline)
   0      8    11.971    19.460    0.15E-03    0.31E-03    0.25E-06
   0      8    11.971    12.209    0.13E-03    0.29E-03    0.25E-06
   1      8    11.971     4.655    0.22E-03    0.24E-03    0.21E-06
  PAW_PBE Pt 04Feb2005                  :
  PAW_PBE H 15Jun2001                   :

 POSCAR: Pt111\(1\1\1)\(2)
  positions in cartesian coordinates
 exchange correlation table for  LEXCH =        8
   RHO(1)=    0.500       N(1)  =     2000
   RHO(2)=  100.500       N(2)  =     4000

 ion  position               nearest neighbor table
   1  1.000  0.000  0.056-   5 2.64   9 2.64  13 2.64  29 2.64  57 2.64  37 2.64  42 2.82  54 2.83
                            14 2.92
   2  0.334  0.169  0.180-  26 2.61  14 2.62   6 2.63  30 2.64  42 2.64  38 2.67  11 2.79   7 2.81
                             9 2.90  21 2.91  13 2.92  15 3.02
   3  0.169  0.333  0.310-  15 2.61   7 2.61  43 2.61  39 2.62  27 2.66  31 2.66   8 2.72   6 2.80
                            48 2.96  14 3.02  10 3.03  12 3.06
   4  0.001  0.002  0.415-  16 2.63   8 2.63  32 2.64  12 2.64  40 2.65  60 2.67   7 2.80  27 2.83
                            63 2.91
   5  1.000  0.250  0.056-   1 2.64  45 2.64  33 2.64   9 2.64  29 2.64  25 2.64  18 2.86  14 2.91
                            10 2.91
   6  0.333  0.417  0.192-  62 2.63  14 2.63  10 2.63  34 2.63  26 2.63   2 2.63  43 2.80   3 2.80
                            15 2.82  45 3.13   9 3.13  49 3.13
   7  0.169  0.087  0.298-   3 2.61  15 2.62  11 2.63  27 2.64  63 2.68  35 2.68  16 2.77   4 2.80
                             2 2.81  14 2.82  42 2.92  12 3.24
   8  0.999  0.250  0.422-   4 2.63  28 2.63  32 2.64  36 2.64  12 2.65  48 2.66   3 2.72  31 2.93
                            27 2.94
   9  0.250  0.250  0.056-  21 2.64  13 2.64   1 2.64  49 2.64  45 2.64   5 2.64  14 2.90   2 2.90
                             6 3.13
  10  0.085  0.417  0.180-  14 2.62  34 2.62   6 2.63  46 2.64  18 2.65  22 2.66  31 2.79  39 2.82
                            45 2.90   5 2.91  33 2.92   3 3.03
  11  0.417  0.085  0.296-  19 2.62   7 2.63  23 2.64  35 2.65  15 2.65  47 2.67   2 2.79  16 2.81
                            30 2.82  20 2.86  38 2.87  24 2.97
  12  0.245  0.246  0.443-  66 1.93  65 1.98   4 2.64   8 2.65  16 2.67  48 2.71  24 2.72  52 2.73
                             3 3.06  15 3.08   7 3.24
  13  0.250  0.000  0.056-  21 2.64   9 2.64  17 2.64   1 2.64  37 2.64  41 2.64  42 2.82  38 2.83
                             2 2.92
  14  0.086  0.169  0.180-  10 2.62   2 2.62   6 2.63  42 2.64  18 2.65  54 2.67  27 2.79   7 2.82
                             9 2.90   5 2.91   1 2.92   3 3.02
  15  0.416  0.334  0.311-   3 2.61  43 2.61   7 2.62  55 2.62  11 2.65  19 2.65  24 2.76   6 2.82
                             2 3.02  26 3.02  52 3.07  12 3.08
  16  0.249  0.001  0.414-   4 2.63  40 2.64  24 2.65  44 2.65  20 2.66  12 2.67   7 2.77  11 2.81
                            35 2.89
  17  0.500  0.000  0.056-  29 2.64  25 2.64  13 2.64  21 2.64  41 2.64  53 2.64  38 2.83  58 2.86
                            30 2.87
  18  0.834  0.167  0.177-  22 2.64  54 2.64  10 2.65  14 2.65  58 2.65  30 2.66  31 2.82  27 2.83
                            23 2.84   5 2.86  25 2.86  29 2.86
  19  0.665  0.333  0.296-  11 2.62  55 2.63  23 2.64  59 2.65  15 2.65  31 2.67  26 2.79  64 2.81
                            30 2.82  28 2.85  22 2.87  24 2.97
  20  0.500  1.000  0.417-  24 2.62  56 2.63  44 2.64  28 2.64  32 2.64  16 2.66  23 2.85  11 2.86
                            47 2.86
  21  0.500  0.250  0.056-  25 2.64  61 2.64   9 2.64  13 2.64  49 2.64  17 2.64  30 2.86  26 2.91
                             2 2.91
  22  0.833  0.416  0.175-  18 2.64  30 2.64  50 2.64  46 2.64  10 2.66  26 2.67  59 2.78  25 2.83
                            33 2.83  61 2.83  31 2.87  19 2.87
  23  0.667  0.083  0.296-  47 2.64  31 2.64  19 2.64  11 2.64  51 2.65  27 2.65  30 2.83  58 2.84
                            18 2.84  28 2.85  20 2.85  32 2.85
  24  0.502  0.248  0.425-  66 1.74  28 2.62  20 2.62  64 2.65  16 2.65  52 2.72  12 2.72  15 2.76
                            11 2.97  19 2.97
  25  0.750  0.250  0.056-  17 2.64  21 2.64  29 2.64  61 2.64  33 2.64   5 2.64  22 2.83  18 2.86
                            30 2.87
  26  0.581  0.416  0.180-   2 2.61  62 2.62   6 2.63  30 2.64  50 2.64  22 2.67  19 2.79  55 2.81
                            49 2.90  21 2.91  61 2.92  15 3.02
  27  0.918  0.084  0.296-  31 2.62   7 2.64  63 2.64  23 2.65   3 2.66  51 2.67  14 2.79  18 2.83
                             4 2.83  54 2.86  32 2.86   8 2.94
  28  0.750  0.250  0.417-  24 2.62   8 2.63  36 2.64  20 2.64  32 2.64  64 2.66  23 2.85  19 2.85
                            31 2.86
  29  0.750  0.000  0.056-  17 2.64  25 2.64   5 2.64  53 2.64   1 2.64  57 2.64  54 2.83  18 2.86
                            58 2.86
  30  0.583  0.167  0.177-  38 2.64  22 2.64   2 2.64  26 2.64  58 2.66  18 2.66  19 2.82  11 2.82
                            23 2.83  21 2.86  17 2.87  25 2.87
  31  0.918  0.332  0.296-  27 2.62  39 2.64  23 2.64  59 2.64   3 2.66  19 2.67  10 2.79  18 2.82
                            36 2.83  28 2.86  22 2.87   8 2.93
  32  0.750  1.000  0.417-   4 2.64  60 2.64  56 2.64   8 2.64  20 2.64  28 2.64  23 2.85  51 2.86
                            27 2.86
  33  1.000  0.500  0.056-  37 2.64  41 2.64   5 2.64  45 2.64  25 2.64  61 2.64  46 2.82  22 2.83
                            10 2.92
  34  0.333  0.665  0.180-  62 2.62  10 2.62   6 2.63  46 2.64  58 2.65  38 2.66  47 2.79  39 2.82
                            45 2.90  53 2.91  41 2.92  43 3.03
  35  0.168  0.834  0.292-  47 2.64  11 2.65  59 2.66  63 2.66   7 2.68  39 2.68  38 2.78  46 2.80
                            42 2.81  40 2.82  16 2.89  44 2.90
  36  0.999  0.500  0.415-  48 2.63  28 2.64   8 2.64  44 2.65  40 2.65  64 2.65  39 2.79  31 2.83
                            59 2.90
  37  1.000  0.750  0.056-  33 2.64  41 2.64  61 2.64  57 2.64  13 2.64   1 2.64  42 2.83  50 2.83
                            46 2.83
  38  0.334  0.917  0.175-  58 2.64  30 2.64  42 2.64  46 2.64  34 2.66   2 2.67  35 2.78  17 2.83
                            41 2.83  13 2.83  47 2.87  11 2.87
  39  0.169  0.581  0.299-  43 2.62   3 2.62  47 2.64  31 2.64  35 2.68  59 2.68  36 2.79  44 2.79
                            10 2.82  34 2.82  46 2.93  48 3.10
  40  0.999  0.750  0.410-  16 2.64  64 2.64   4 2.65  60 2.65  36 2.65  44 2.65  63 2.81  59 2.82
                            35 2.82
  41  0.250  0.750  0.056-  45 2.64  33 2.64  37 2.64  53 2.64  17 2.64  13 2.64  46 2.82  38 2.83
                            34 2.92
  42  0.084  0.918  0.174-  14 2.64  38 2.64   2 2.64  54 2.65  46 2.67  50 2.67  63 2.80  35 2.81
                            13 2.82   1 2.82  37 2.83   7 2.92
  43  0.416  0.581  0.310-  15 2.61  55 2.61   3 2.61  39 2.62  51 2.66  47 2.66  56 2.72   6 2.80
                            48 2.96  62 3.02  34 3.03  52 3.06
  44  0.250  0.750  0.415-  48 2.63  20 2.64  56 2.64  36 2.65  40 2.65  16 2.65  39 2.79  47 2.83
                            35 2.90
  45  0.250  0.500  0.056-  41 2.64  53 2.64   5 2.64   9 2.64  49 2.64  33 2.64  10 2.90  34 2.90
                             6 3.13
  46  0.084  0.666  0.175-  10 2.64  34 2.64  22 2.64  38 2.64  50 2.67  42 2.67  35 2.80  59 2.80
                            33 2.82  41 2.82  37 2.83  39 2.93
  47  0.417  0.832  0.296-  51 2.62  39 2.64  23 2.64  35 2.64  43 2.66  11 2.67  34 2.79  58 2.82
                            44 2.83  20 2.86  38 2.87  56 2.93
  48  0.247  0.503  0.437-  65 1.70  36 2.63  44 2.63   8 2.66  56 2.66  52 2.71  12 2.71  43 2.96
                             3 2.96  39 3.10
  49  0.500  0.500  0.056-  61 2.64  53 2.64  57 2.64  21 2.64   9 2.64  45 2.64  62 2.90  26 2.90
                             6 3.13
  50  0.832  0.666  0.174-  62 2.64  22 2.64  26 2.64  54 2.65  46 2.67  42 2.67  63 2.80  59 2.81
                            61 2.82  57 2.82  37 2.83  55 2.92
  51  0.665  0.832  0.296-  47 2.62  55 2.64  63 2.64  23 2.65  43 2.66  27 2.67  62 2.79  58 2.83
                            60 2.83  32 2.86  54 2.86  56 2.94
  52  0.504  0.504  0.443-  66 1.93  65 1.98  60 2.64  56 2.65  64 2.67  48 2.71  24 2.72  12 2.73
                            43 3.06  15 3.07  55 3.24
  53  0.500  0.750  0.056-  49 2.64  57 2.64  45 2.64  41 2.64  29 2.64  17 2.64  58 2.86  62 2.91
                            34 2.91
  54  0.833  0.917  0.175-  18 2.64  58 2.64  50 2.65  42 2.65  62 2.67  14 2.67  63 2.78  29 2.83
                            57 2.83   1 2.83  27 2.86  51 2.86
  55  0.663  0.581  0.298-  43 2.61  15 2.62  19 2.63  51 2.64  63 2.68  59 2.68  64 2.77  60 2.80
                            26 2.81  62 2.82  50 2.92  52 3.24
  56  0.500  0.751  0.422-  60 2.63  20 2.63  32 2.64  44 2.64  52 2.65  48 2.66  43 2.72  47 2.93
                            51 2.94
  57  0.750  0.750  0.056-  61 2.64  49 2.64  53 2.64  37 2.64   1 2.64  29 2.64  50 2.82  54 2.83
                            62 2.92
  58  0.583  0.916  0.177-  38 2.64  54 2.64  34 2.65  62 2.65  18 2.65  30 2.66  47 2.82  51 2.83
                            23 2.84  53 2.86  17 2.86  29 2.86
  59  0.916  0.582  0.292-  31 2.64  19 2.65  35 2.66  63 2.66  55 2.68  39 2.68  22 2.78  46 2.80
                            50 2.81  40 2.82  64 2.89  36 2.90
  60  0.748  0.749  0.415-  64 2.63  56 2.63  32 2.64  52 2.64  40 2.65   4 2.67  55 2.80  51 2.83
                            63 2.91
  61  0.750  0.500  0.056-  49 2.64  57 2.64  21 2.64  25 2.64  37 2.64  33 2.64  50 2.82  22 2.83
[...]
      1.323246  0.797130  5.968937            0           0           0
      9.234561  2.284150  8.439578            0           0           0
      1.319975  2.286321  1.115846            0           0           0
     -1.297394  3.810259  3.593628            0           0           0
      3.957063  0.777534  5.929522            0           0           0
      1.293260  2.249164  8.869724            0           0           0
      2.639975  0.000014  1.115846            0           0           0
      0.011475  1.546174  3.591241            0           0           0
      2.632663  3.052176  6.220560            0           0           0
      2.627269  0.007873  8.284336            0           0           0
      5.279976  0.000014  1.115846            0           0           0
      7.925800  1.527966  3.538309            0           0           0
      5.264773  3.042468  5.929451            0           0           0
      0.002225  9.141456  8.335055            0           0           0
      3.959975  2.286321  1.115846            0           0           0
      6.600102  3.806620  3.500806            0           0           0
      6.601977  0.760474  5.928459            0           0           0
      3.984842  2.271463  8.496609            0           0           0
      6.599975  2.286321  1.115846            0           0           0
      3.935856  3.807240  3.597343            0           0           0
      9.247230  0.772328  5.920802            0           0           0
      6.603707  2.285329  8.334609            0           0           0
      7.919975  0.000014  1.115846            0           0           0
      5.270259  1.529660  3.546977            0           0           0
      7.936856  3.040241  5.920299            0           0           0
      2.645619  9.141313  8.337637            0           0           0
      7.919976  4.572628  1.115846            0           0           0
      0.011454  6.077377  3.593942            0           0           0
     -2.626721  7.622574  5.833071            0           0           0
      7.915079  4.571607  8.303088            0           0           0
      6.599976  6.858935  1.115846            0           0           0
     -1.316631  8.384837  3.500920            0           0           0
     -1.281105  5.311873  5.980073            0           0           0
      6.592148  6.862837  8.198214            0           0           0
     -1.320025  6.858935  1.115846            0           0           0
     -3.958813  8.399008  3.488774            0           0           0
      1.331068  5.312445  6.206379            0           0           0
     -1.322125  6.862891  8.303782            0           0           0
     -0.000025  4.572628  1.115846            0           0           0
     -2.626637  6.088954  3.492497            0           0           0
      0.015101  7.609855  5.920802            0           0           0
     -0.051642  4.601793  8.730213            0           0           0
      2.639975  4.572628  1.115846            0           0           0
      5.266720  6.087697  3.488819            0           0           0
      2.634396  7.609019  5.921142            0           0           0
      2.658249  4.613359  8.869231            0           0           0
      1.319976  6.858935  1.115846            0           0           0
      3.956011  8.385327  3.504394            0           0           0
      3.930846  5.313755  5.969048            0           0           0
      1.318642  6.863955  8.440074            0           0           0
      3.959975  6.858935  1.115846            0           0           0
      1.319507  8.376039  3.538443            0           0           0
      6.604774  5.321881  5.832980            0           0           0
      3.947615  6.850346  8.308104            0           0           0
      5.279975  4.572628  1.115846            0           0           0
      2.626596  6.075768  3.591417            0           0           0
      5.273783  7.624166  5.833840            0           0           0
      5.266216  4.578663  8.284439            0           0           0
      1.065202  3.958356  9.844931     0.663059   -0.379503   -0.370231
      2.903568  2.891074  9.715449     0.455544   -0.243561    0.111433

   5 f/i=    4.821542 THz    30.294640 2PiTHz  160.829315 cm-1    19.940301 meV
             X         Y         Z           dx          dy          dz
     10.559976  0.000014  1.115846            0           0           0
      2.630695  1.546622  3.597475            0           0           0
      0.024450  3.049232  6.206149            0           0           0
      0.000508  0.013938  8.307729            0           0           0
      9.239976  2.286321  1.115846            0           0           0
      1.318145  3.811549  3.845894            0           0           0
      1.323246  0.797130  5.968937            0           0           0
      9.234561  2.284150  8.439578            0           0           0
      1.319975  2.286321  1.115846            0           0           0
     -1.297394  3.810259  3.593628            0           0           0
      3.957063  0.777534  5.929522            0           0           0
      1.293260  2.249164  8.869724            0           0           0
      2.639975  0.000014  1.115846            0           0           0
      0.011475  1.546174  3.591241            0           0           0
      2.632663  3.052176  6.220560            0           0           0
      2.627269  0.007873  8.284336            0           0           0
      5.279976  0.000014  1.115846            0           0           0
      7.925800  1.527966  3.538309            0           0           0
      5.264773  3.042468  5.929451            0           0           0
      0.002225  9.141456  8.335055            0           0           0
      3.959975  2.286321  1.115846            0           0           0
      6.600102  3.806620  3.500806            0           0           0
      6.601977  0.760474  5.928459            0           0           0
      3.984842  2.271463  8.496609            0           0           0
      6.599975  2.286321  1.115846            0           0           0
      3.935856  3.807240  3.597343            0           0           0
      9.247230  0.772328  5.920802            0           0           0
      6.603707  2.285329  8.334609            0           0           0
      7.919975  0.000014  1.115846            0           0           0
      5.270259  1.529660  3.546977            0           0           0
      7.936856  3.040241  5.920299            0           0           0
      2.645619  9.141313  8.337637            0           0           0
      7.919976  4.572628  1.115846            0           0           0
      0.011454  6.077377  3.593942            0           0           0
     -2.626721  7.622574  5.833071            0           0           0
      7.915079  4.571607  8.303088            0           0           0
      6.599976  6.858935  1.115846            0           0           0
     -1.316631  8.384837  3.500920            0           0           0
     -1.281105  5.311873  5.980073            0           0           0
      6.592148  6.862837  8.198214            0           0           0
     -1.320025  6.858935  1.115846            0           0           0
     -3.958813  8.399008  3.488774            0           0           0
      1.331068  5.312445  6.206379            0           0           0
     -1.322125  6.862891  8.303782            0           0           0
     -0.000025  4.572628  1.115846            0           0           0
     -2.626637  6.088954  3.492497            0           0           0
      0.015101  7.609855  5.920802            0           0           0
     -0.051642  4.601793  8.730213            0           0           0
      2.639975  4.572628  1.115846            0           0           0
      5.266720  6.087697  3.488819            0           0           0
      2.634396  7.609019  5.921142            0           0           0
      2.658249  4.613359  8.869231            0           0           0
      1.319976  6.858935  1.115846            0           0           0
      3.956011  8.385327  3.504394            0           0           0
      3.930846  5.313755  5.969048            0           0           0
      1.318642  6.863955  8.440074            0           0           0
      3.959975  6.858935  1.115846            0           0           0
      1.319507  8.376039  3.538443            0           0           0
      6.604774  5.321881  5.832980            0           0           0
      3.947615  6.850346  8.308104            0           0           0
      5.279975  4.572628  1.115846            0           0           0
      2.626596  6.075768  3.591417            0           0           0
      5.273783  7.624166  5.833840            0           0           0
      5.266216  4.578663  8.284439            0           0           0
      1.065202  3.958356  9.844931    -0.118788   -0.231739   -0.008006
      2.903568  2.891074  9.715449    -0.476282   -0.839805    0.002485

   6 f/i=    9.140880 THz    57.433840 2PiTHz  304.906911 cm-1    37.803653 meV
             X         Y         Z           dx          dy          dz
     10.559976  0.000014  1.115846            0           0           0
      2.630695  1.546622  3.597475            0           0           0
      0.024450  3.049232  6.206149            0           0           0
      0.000508  0.013938  8.307729            0           0           0
      9.239976  2.286321  1.115846            0           0           0
      1.318145  3.811549  3.845894            0           0           0
      1.323246  0.797130  5.968937            0           0           0
      9.234561  2.284150  8.439578            0           0           0
      1.319975  2.286321  1.115846            0           0           0
     -1.297394  3.810259  3.593628            0           0           0
      3.957063  0.777534  5.929522            0           0           0
      1.293260  2.249164  8.869724            0           0           0
      2.639975  0.000014  1.115846            0           0           0
      0.011475  1.546174  3.591241            0           0           0
      2.632663  3.052176  6.220560            0           0           0
      2.627269  0.007873  8.284336            0           0           0
      5.279976  0.000014  1.115846            0           0           0
      7.925800  1.527966  3.538309            0           0           0
      5.264773  3.042468  5.929451            0           0           0
      0.002225  9.141456  8.335055            0           0           0
      3.959975  2.286321  1.115846            0           0           0
      6.600102  3.806620  3.500806            0           0           0
      6.601977  0.760474  5.928459            0           0           0
      3.984842  2.271463  8.496609            0           0           0
      6.599975  2.286321  1.115846            0           0           0
      3.935856  3.807240  3.597343            0           0           0
      9.247230  0.772328  5.920802            0           0           0
      6.603707  2.285329  8.334609            0           0           0
      7.919975  0.000014  1.115846            0           0           0
      5.270259  1.529660  3.546977            0           0           0
      7.936856  3.040241  5.920299            0           0           0
      2.645619  9.141313  8.337637            0           0           0
      7.919976  4.572628  1.115846            0           0           0
      0.011454  6.077377  3.593942            0           0           0
     -2.626721  7.622574  5.833071            0           0           0
      7.915079  4.571607  8.303088            0           0           0
      6.599976  6.858935  1.115846            0           0           0
     -1.316631  8.384837  3.500920            0           0           0
     -1.281105  5.311873  5.980073            0           0           0
      6.592148  6.862837  8.198214            0           0           0
     -1.320025  6.858935  1.115846            0           0           0
     -3.958813  8.399008  3.488774            0           0           0
      1.331068  5.312445  6.206379            0           0           0
     -1.322125  6.862891  8.303782            0           0           0
     -0.000025  4.572628  1.115846            0           0           0
     -2.626637  6.088954  3.492497            0           0           0
      0.015101  7.609855  5.920802            0           0           0
     -0.051642  4.601793  8.730213            0           0           0
      2.639975  4.572628  1.115846            0           0           0
      5.266720  6.087697  3.488819            0           0           0
      2.634396  7.609019  5.921142            0           0           0
      2.658249  4.613359  8.869231            0           0           0
      1.319976  6.858935  1.115846            0           0           0
      3.956011  8.385327  3.504394            0           0           0
      3.930846  5.313755  5.969048            0           0           0
      1.318642  6.863955  8.440074            0           0           0
      3.959975  6.858935  1.115846            0           0           0
      1.319507  8.376039  3.538443            0           0           0
      6.604774  5.321881  5.832980            0           0           0
      3.947615  6.850346  8.308104            0           0           0
      5.279975  4.572628  1.115846            0           0           0
      2.626596  6.075768  3.591417            0           0           0
      5.273783  7.624166  5.833840            0           0           0
      5.266216  4.578663  8.284439            0           0           0
      1.065202  3.958356  9.844931     0.485134    0.834862   -0.000481
      2.903568  2.891074  9.715449    -0.131094   -0.224644   -0.000120

 Finite differences POTIM=  1.500000000000000E-002
  LATTYP: Found a hexagonal cell.
 ALAT       =    10.5600004196
 C/A-ratio  =     1.8939393187

  Lattice vectors:

 A1 = (  10.5600004196,   0.0000000000,   0.0000000000)
 A2 = (  -5.2800002098,   9.1452286274,   0.0000000000)
 A3 = (   0.0000000000,   0.0000000000,  20.0000000000)

Analysis of symmetry for initial positions (statically):
 Subroutine PRICEL returns:
 Original cell was already a primitive cell.

[...]

The static configuration has the point symmetry C_1 .

Analysis of symmetry for dynamics (positions and initial velocities):
 Subroutine PRICEL returns:
 Original cell was already a primitive cell.

[...]

The dynamic configuration has the point symmetry C_1 .

Analysis of constrained symmetry for selective dynamics:
 Subroutine PRICEL returns:
 Original cell was already a primitive cell.

[...]

The constrained configuration has the point symmetry C_1 .

Analysis of structural, dynamic, and magnetic symmetry:
 Subroutine PRICEL returns:
 Original cell was already a primitive cell.

 Routine SETGRP: Setting up the symmetry group for a
 hexagonal supercell.

 Subroutine GETGRP returns: Found  1 space group operations
 (whereof  1 operations were pure point group operations)
 out of a pool of 24 trial point group operations.

The magnetic configuration has the point symmetry C_1 .

 Subroutine INISYM returns: Found  1 space group operations
 (whereof  1 operations are pure point group operations),
 and found     1 'primitive' translations

 KPOINTS: mesh auto

Automatic generation of k-mesh.
Space group operators:
 irot       det(A)        alpha          n_x          n_y          n_z        tau_x        tau_y        tau_z
    1     1.000000     0.000000     1.000000     0.000000     0.000000     0.000000     0.000000     0.000000

 Subroutine IBZKPT returns following result:

 Found      4 irreducible k-points:

 Following reciprocal coordinates:
            Coordinates               Weight
  0.000000  0.000000  0.000000      1.000000
  0.500000 -0.000000  0.000000      1.000000
  0.000000  0.500000  0.000000      1.000000
  0.500000  0.500000  0.000000      1.000000

 Following cartesian coordinates:
            Coordinates               Weight
  0.000000  0.000000  0.000000      1.000000
  0.047348  0.027337  0.000000      1.000000
  0.000000  0.054673  0.000000      1.000000
  0.047348  0.082010  0.000000      1.000000

 TETIRR: Found     12 inequivalent tetrahedra from       24
 BZINTS: Fermi energy:  2.720631;642.000000 electrons
         Band energy:-497.324503;  BLOECHL correction: -0.069740