 vasp.5.4.4.18Apr17-6-g9f103f2a35 (build Nov 30 2020 22:55:02) complex

 executed on             LinuxIFC date 2023.09.11  11:25:50

 INCAR:
 POTCAR:    PAW_PBE Cu 22Jun2005
 POTCAR:    PAW_PBE Pt 04Feb2005
 POTCAR:    PAW_PBE H 15Jun2001

 POTCAR:    PAW_PBE Cu 22Jun2005
   VRHFIN =Cu: d10 p1

   TITEL  = PAW_PBE Cu 22Jun2005
   POMASS =   63.546; ZVAL   =   11.000    mass and valenz
   ENMAX  =  295.446; ENMIN  =  221.585 eV

 POTCAR:    PAW_PBE Pt 04Feb2005
   VRHFIN =Pt: s1d9

   TITEL  = PAW_PBE Pt 04Feb2005
   POMASS =  195.080; ZVAL   =   10.000    mass and valenz
   ENMAX  =  230.283; ENMIN  =  172.712 eV

 POTCAR:    PAW_PBE H 15Jun2001
   VRHFIN =H: ultrasoft test

   TITEL  = PAW_PBE H 15Jun2001
   POMASS =    1.000; ZVAL   =    1.000    mass and valenz
   ENMAX  =  250.000; ENMIN  =  200.000 eV

 Optimization of the real space projectors (new method)

 maximal supplied QI-value         = 16.25
 optimisation between [QCUT,QGAM] = [ 11.86, 23.89] = [ 39.41,159.82] Ry
 Optimized for a Real-space Cutoff    1.49 Angstroem

   l    n(q)    QCUT    max X(q) W(low)/X(q) W(high)/X(q)  e(spline)
   2     10    11.864     4.610    0.10E-03    0.20E-03    0.29E-06
   2     10    11.864     8.522    0.17E-03    0.33E-03    0.50E-06
   0     11    11.864    51.609    0.52E-04    0.55E-04    0.33E-06
   0     11    11.864    27.747    0.46E-04    0.52E-04    0.31E-06
   1     10    11.864    20.408    0.54E-04    0.25E-04    0.21E-06
   1     10    11.864    13.425    0.48E-04    0.22E-04    0.18E-06
 Optimization of the real space projectors (new method)

[...]

   l    n(q)    QCUT    max X(q) W(low)/X(q) W(high)/X(q)  e(spline)
   2     10    11.920    66.195    0.79E-04    0.18E-03    0.24E-06
   2     10    11.920    64.643    0.81E-04    0.19E-03    0.24E-06
   0     11    11.920    95.520    0.28E-04    0.54E-04    0.18E-06
   0     11    11.920    63.403    0.27E-04    0.52E-04    0.17E-06
   1     10    11.920    19.961    0.18E-04    0.11E-03    0.23E-06
   1     10    11.920    13.289    0.25E-04    0.87E-04    0.19E-06
 Optimization of the real space projectors (new method)

 maximal supplied QI-value         = 34.20
 optimisation between [QCUT,QGAM] = [ 11.97, 23.94] = [ 40.13,160.53] Ry
 Optimized for a Real-space Cutoff    1.18 Angstroem

   l    n(q)    QCUT    max X(q) W(low)/X(q) W(high)/X(q)  e(spline)
   0      8    11.971    19.460    0.15E-03    0.31E-03    0.25E-06
   0      8    11.971    12.209    0.13E-03    0.29E-03    0.25E-06
   1      8    11.971     4.655    0.22E-03    0.24E-03    0.21E-06
  PAW_PBE Cu 22Jun2005                  :
  PAW_PBE Pt 04Feb2005                  :
  PAW_PBE H 15Jun2001                   :

 POSCAR: PtM\(2)
  positions in cartesian coordinates
 exchange correlation table for  LEXCH =        8
   RHO(1)=    0.500       N(1)  =     2000
   RHO(2)=  100.500       N(2)  =     4000

 ion  position               nearest neighbor table
   1  0.785  0.869  0.314-  55 2.49  20 2.49  39 2.50  57 2.64   2 2.64  40 2.64   3 2.64  56 2.64
                            29 2.64  73 2.66  65 2.66  72 2.67
   2  0.035  0.870  0.314-  49 2.49  52 2.49  39 2.49  56 2.64  33 2.64   1 2.64  23 2.64   3 2.64
                            77 2.64  41 2.65  67 2.66  65 2.67
   3  0.035  0.619  0.314-  39 2.49  60 2.49  12 2.49   9 2.63  40 2.64  15 2.64   1 2.64   2 2.64
                            77 2.65  41 2.65  66 2.66  73 2.67
   4  0.786  0.868  0.045-  21 2.50  62 2.50  19 2.51  30 2.64  59 2.64  58 2.64  42 2.64   6 2.64
                             5 2.64
   5  0.036  0.868  0.045-  54 2.50  35 2.50  62 2.51  43 2.64   6 2.64  34 2.64  24 2.64  58 2.64
                             4 2.64
   6  0.036  0.618  0.045-  32 2.50  54 2.50  21 2.51   5 2.64  10 2.64  43 2.64   4 2.64  42 2.64
                            18 2.64
   7  0.619  0.202  0.135-  55 2.49  63 2.50  64 2.50  28 2.50  30 2.50  58 2.51  45 2.64  22 2.64
                            37 2.64  11 2.64  19 2.64  62 2.64
   8  0.369  0.952  0.135-  53 2.49  26 2.49  50 2.50  16 2.50  24 2.50  59 2.51  19 2.64  35 2.64
                            44 2.64  37 2.64  25 2.64  38 2.64
   9  0.035  0.370  0.314-  12 2.49  61 2.49  46 2.49   3 2.63  40 2.64  13 2.64  33 2.64  47 2.64
                            15 2.65  71 2.65  66 2.66  68 2.66
  10  0.036  0.368  0.045-  38 2.50  32 2.50  31 2.51  16 2.64   6 2.64  34 2.64  18 2.64  42 2.64
                            48 2.64
  11  0.869  0.202  0.135-  49 2.49  61 2.49  48 2.50  63 2.50  58 2.50  34 2.51  31 2.64  38 2.64
                            22 2.64  62 2.64   7 2.64  35 2.64
  12  0.952  0.535  0.225-   9 2.49  31 2.49   3 2.49  21 2.49  40 2.49  32 2.49  61 2.64  46 2.64
                            39 2.64  20 2.64  60 2.65  51 2.65
  13  0.285  0.119  0.314-  46 2.49  53 2.49  26 2.49  29 2.64  57 2.64  23 2.64  15 2.64   9 2.64
                            33 2.65  69 2.65  71 2.66  74 2.66
  14  0.534  0.619  0.316-  36 2.50  50 2.51  51 2.51  27 2.62  41 2.62  47 2.64  23 2.64  80 2.65
                            40 2.65  57 2.65  76 2.69  75 2.69
  15  0.285  0.370  0.315-  60 2.49  64 2.50  46 2.50  27 2.63  41 2.64   3 2.64  29 2.64  13 2.64
                             9 2.65  74 2.65  66 2.66  79 2.67
  16  0.286  0.118  0.045-   8 2.50  37 2.50  38 2.51  24 2.64  10 2.64  34 2.64  59 2.64  18 2.64
                            30 2.64
  17  0.536  0.618  0.045-  22 2.50  25 2.50  44 2.51  42 2.64  48 2.64  59 2.64  28 2.64  24 2.64
                            43 2.64
  18  0.286  0.368  0.045-  37 2.50  45 2.50  32 2.51  28 2.64  30 2.64  43 2.64  10 2.64  16 2.64
                             6 2.64
  19  0.619  0.952  0.135-  20 2.49  55 2.49  53 2.49  30 2.50  59 2.50   4 2.51  25 2.64   8 2.64
                            37 2.64  21 2.64   7 2.64  62 2.64
  20  0.702  0.785  0.225-  40 2.49  25 2.49  19 2.49  57 2.49   1 2.49  21 2.49  12 2.64  55 2.64
                            39 2.64  51 2.64  53 2.64  50 2.64
  21  0.869  0.702  0.135-  12 2.49  39 2.49  20 2.49   4 2.50  42 2.50   6 2.51  32 2.64  31 2.64
                            25 2.64  62 2.64  54 2.64  19 2.64
  22  0.619  0.452  0.135-  51 2.49  63 2.49  17 2.50  28 2.50  36 2.51  48 2.51  44 2.64  45 2.64
                             7 2.64  25 2.64  11 2.64  31 2.64
  23  0.285  0.869  0.315-  52 2.49  50 2.49  26 2.49  41 2.64  14 2.64  57 2.64   2 2.64  33 2.64
                            13 2.64  69 2.66  67 2.66  75 2.67
  24  0.286  0.868  0.045-  44 2.50   8 2.50  35 2.51  59 2.64  16 2.64  17 2.64  43 2.64   5 2.64
                            34 2.64
  25  0.619  0.702  0.135-  20 2.49  51 2.50  50 2.50  59 2.50  17 2.50  42 2.51  19 2.64  44 2.64
                             8 2.64  22 2.64  21 2.64  31 2.64
  26  0.202  0.036  0.225-  38 2.49  13 2.49  35 2.49  33 2.49   8 2.49  23 2.49  53 2.64  49 2.64
                            52 2.64  50 2.64  46 2.65  61 2.65
  27  0.534  0.370  0.316-  36 2.50  64 2.51  63 2.51  14 2.62  41 2.62  15 2.63  47 2.64  78 2.64
                            56 2.65  29 2.65  76 2.69  79 2.69
  28  0.536  0.368  0.045-   7 2.50  22 2.50  45 2.51  48 2.64  18 2.64  43 2.64  17 2.64  58 2.64
                            30 2.64
  29  0.535  0.119  0.314-  64 2.48  53 2.49  55 2.49  57 2.64  13 2.64   1 2.64  56 2.64  15 2.64
                            78 2.65  27 2.65  72 2.66  74 2.67
  30  0.536  0.118  0.045-  19 2.50   7 2.50  37 2.51   4 2.64  18 2.64  58 2.64  59 2.64  16 2.64
                            28 2.64
  31  0.869  0.452  0.135-  12 2.49  61 2.49  42 2.50  48 2.50  51 2.50  10 2.51  38 2.64  11 2.64
                            21 2.64  32 2.64  22 2.64  25 2.64
  32  0.119  0.452  0.135-  46 2.49  12 2.49  60 2.50   6 2.50  10 2.50  18 2.51  54 2.64  45 2.64
                            21 2.64  37 2.64  38 2.64  31 2.64
  33  0.035  0.119  0.314-  61 2.49  49 2.49  26 2.49  56 2.64   2 2.64  23 2.64  47 2.64   9 2.64
                            13 2.65  71 2.65  67 2.65  70 2.66
  34  0.036  0.118  0.045-  35 2.50  38 2.50  11 2.51  58 2.64  16 2.64   5 2.64  10 2.64  24 2.64
                            48 2.64
  35  0.119  0.952  0.135-  49 2.49  26 2.49  52 2.50  34 2.50   5 2.50  24 2.51   8 2.64  44 2.64
                            62 2.64  54 2.64  11 2.64  38 2.64
  36  0.452  0.536  0.226-  27 2.50  14 2.50  41 2.50  44 2.50  45 2.50  22 2.51  51 2.63  60 2.63
                            63 2.63  64 2.63  50 2.63  52 2.63
  37  0.369  0.202  0.135-  53 2.49  46 2.49  64 2.50  18 2.50  16 2.50  30 2.51  38 2.64  32 2.64
                             7 2.64   8 2.64  19 2.64  45 2.64
  38  0.119  0.202  0.135-  26 2.49  46 2.50  61 2.50  10 2.50  34 2.50  16 2.51  31 2.64  37 2.64
                            32 2.64  11 2.64   8 2.64  35 2.64
  39  0.952  0.785  0.225-   3 2.49   2 2.49  62 2.49  21 2.49  54 2.49   1 2.50  12 2.64  20 2.64
                            55 2.64  60 2.64  49 2.64  52 2.64
  40  0.785  0.619  0.314-  51 2.49  20 2.49  12 2.49   9 2.64   3 2.64  47 2.64   1 2.64  57 2.64
                            14 2.65  80 2.65  68 2.66  73 2.66
  41  0.286  0.619  0.316-  36 2.50  52 2.51  60 2.51  14 2.62  27 2.62  15 2.64  23 2.64   3 2.65
                             2 2.65  77 2.65  79 2.69  75 2.69
  42  0.786  0.618  0.045-  31 2.50  21 2.50  25 2.51  17 2.64  59 2.64  48 2.64   4 2.64   6 2.64
                            10 2.64
  43  0.286  0.618  0.045-  45 2.50  44 2.50  54 2.51  28 2.64   5 2.64  18 2.64  17 2.64  24 2.64
                             6 2.64
  44  0.369  0.702  0.135-  50 2.49  52 2.50  24 2.50  43 2.50  36 2.50  17 2.51  22 2.64  25 2.64
                            35 2.64   8 2.64  54 2.64  45 2.64
  45  0.369  0.452  0.135-  64 2.49  60 2.50  43 2.50  18 2.50  36 2.50  28 2.51  54 2.64  32 2.64
                             7 2.64  22 2.64  37 2.64  44 2.64
  46  0.202  0.286  0.225-  13 2.49  32 2.49   9 2.49  37 2.49  38 2.50  15 2.50  12 2.64  60 2.64
                            53 2.64  64 2.64  26 2.65  61 2.65
  47  0.784  0.370  0.315-  51 2.49  63 2.49  61 2.50  27 2.64  14 2.64  40 2.64  33 2.64  56 2.64
                             9 2.64  70 2.65  68 2.66  76 2.68
  48  0.786  0.368  0.045-  11 2.50  31 2.50  22 2.51  28 2.64  17 2.64  42 2.64  58 2.64  34 2.64
                            10 2.64
  49  0.952  0.036  0.225-   2 2.49  11 2.49  33 2.49  62 2.49  56 2.49  35 2.49  26 2.64  61 2.64
                            55 2.64  39 2.64  52 2.65  63 2.65
  50  0.452  0.785  0.225-  57 2.48  23 2.49  44 2.49   8 2.50  25 2.50  14 2.51  52 2.63  51 2.63
                            36 2.63  26 2.64  20 2.64  53 2.65
  51  0.701  0.536  0.225-  40 2.49  47 2.49  22 2.49  25 2.50  31 2.50  14 2.51  36 2.63  50 2.63
                            63 2.63  61 2.64  20 2.64  12 2.65
  52  0.203  0.785  0.225-   2 2.49  23 2.49  44 2.50  54 2.50  35 2.50  41 2.51  50 2.63  60 2.63
                            36 2.63  26 2.64  39 2.64  49 2.65
  53  0.452  0.036  0.225-  57 2.49  37 2.49   8 2.49  29 2.49  13 2.49  19 2.49  26 2.64  46 2.64
                            55 2.64  20 2.64  50 2.65  64 2.65
[...]
      8.91758      7.17955      4.95624        -0.016969      0.009470     -0.004016
     10.23309      4.89896      4.95529         0.003245     -0.015955      0.005972
      6.28498      7.18010      4.95591         0.012978      0.010245     -0.000256
      4.95917      0.32662      4.94511        -0.009449      0.006947     -0.009965
      4.96387      6.41973      2.97634         0.010182     -0.005913      0.003268
      7.60097      0.32518      4.94640        -0.003410     -0.004876     -0.012440
      8.91953      1.08841      6.91346         0.001274      0.003689      0.000604
     10.24028      7.95192      6.91301         0.005768      0.001072      0.007967
      8.92813      1.08218      0.98802         0.010347      0.002543      0.025882
     10.24773      7.94104      0.98727        -0.008057      0.014718      0.023856
      4.96889      4.89892      4.95527        -0.006455     -0.014076      0.009047
[...]
      6.27020      8.72496      9.09653        -0.043190      0.043905     -0.010831
     11.56368      4.15141      9.09963         0.020512     -0.002221     -0.004210
      8.92117      8.72548      9.09668         0.041769      0.030986     -0.007715
     10.23675      1.85510      9.09700         0.019267     -0.051901     -0.003811
      2.31552      1.86232      9.08403        -0.007861     -0.008461      0.001115
     11.55210      8.72378      9.10047         0.020586     -0.028872     -0.001286
     12.87536      6.43258      9.10043         0.007441      0.011778     -0.003562
      4.95417      1.85630      9.09772        -0.003205     -0.049589     -0.003169
      7.59486      6.47989      9.15258         0.005420      0.080348     -0.010156
      8.95263      4.12570      9.15990         0.097176     -0.043424     -0.025970
      4.92913      6.44824      9.08703        -0.057450      0.047074     -0.005485
      7.59564      1.83264      9.08731        -0.009741     -0.061724      0.000419
      6.23986      4.12801      9.15837        -0.101211     -0.056758     -0.020591
     10.26281      6.44856      9.08729         0.045714      0.053669     -0.004310
      7.61109      4.92774     10.12215        -0.019238     -0.024081      0.024094
    total drift:                               -0.007359     -0.001620      0.061269

  FREE ENERGIE OF THE ION-ELECTRON SYSTEM (eV)
  free  energy   TOTEN  =      -362.58196624 eV

  energy  without entropy=     -362.58196624  energy(sigma->0) =     -362.58196624

 d Force = 0.1580315E-02[-0.723E-03, 0.388E-02]  d Energy = 0.2264744E-03 0.135E-02
 d Force =-0.1198248E+02[-0.120E+02,-0.120E+02]  d Ewald  =-0.1198273E+02 0.253E-03

 Finite differences progress:
  Degree of freedom:   3/  3
  Displacement:        2/  2
  Total:               6/  6

 SECOND DERIVATIVES (NOT SYMMETRIZED)
              81X         81Y         81Z
 81X    -1.401906    0.101654    0.206399
 81Y     0.095089   -1.541008   -0.018614
 81Z     0.165452    0.128945   -5.118090

 Eigenvectors and eigenvalues of the dynamical matrix

   1 f  =   35.401996 THz   222.437302 2PiTHz 1180.883445 cm-1   146.410940 meV
             X         Y         Z           dx          dy          dz
     12.878999  7.947891  6.918959            0           0           0
      4.958021  7.951839  6.912846            0           0           0
      3.637815  5.661861  6.915052            0           0           0
     12.887720  7.941333  0.987864            0           0           0
      4.968284  7.940902  0.987883            0           0           0
      3.648115  5.654910  0.987889            0           0           0
      7.603449  1.847659  2.976120            0           0           0
      8.923598  8.706422  2.976146            0           0           0
      2.319280  3.380914  6.917629            0           0           0
      2.328399  3.368554  0.987894            0           0           0
     10.243665  1.847492  2.976312            0           0           0
     12.881008  4.896545  4.945721            0           0           0
      3.642820  1.092268  6.915792            0           0           0
      8.911092  5.659525  6.953187            0           0           0
      4.964605  3.380761  6.930781            0           0           0
      3.647896  1.082252  0.987910            0           0           0
      8.928362  5.654909  0.987490            0           0           0
      4.968684  3.368453  0.987734            0           0           0
     11.563289  8.706198  2.976004            0           0           0
     11.560643  7.183228  4.946321            0           0           0
     12.883675  6.419743  2.976164            0           0           0
      8.923477  4.133841  2.976139            0           0           0
      7.599311  7.951182  6.926733            0           0           0
      7.608531  7.941230  0.987539            0           0           0
     10.243612  6.420120  2.976148            0           0           0
      2.321144  0.325402  4.947879            0           0           0
      7.599403  3.387084  6.954251            0           0           0
      7.608220  3.368816  0.987541            0           0           0
      6.278407  1.088411  6.913438            0           0           0
      6.288209  1.082052  0.987641            0           0           0
     11.563944  4.133428  2.976108            0           0           0
      3.643879  4.133784  2.976377            0           0           0
      0.995410  1.092011  6.915394            0           0           0
      1.007995  1.082290  0.987966            0           0           0
      6.283781  8.706163  2.976135            0           0           0
      7.601307  4.897775  4.964588            0           0           0
      4.963537  1.847473  2.976285            0           0           0
      2.323737  1.847712  2.976412            0           0           0
     14.201568  7.183063  4.946377            0           0           0
     11.560099  5.662017  6.915141            0           0           0
      6.286974  5.660089  6.951910            0           0           0
     11.567787  5.654966  0.987763            0           0           0
      6.288344  5.654902  0.987657            0           0           0
      7.603883  6.420029  2.976043            0           0           0
      6.283603  4.133811  2.976267            0           0           0
      3.644657  2.615888  4.949852            0           0           0
     10.234562  3.380472  6.930903            0           0           0
     10.247721  3.368782  0.987752            0           0           0
     10.242954  0.326636  4.945071            0           0           0
      8.917583  7.179546  4.956241            0           0           0
     10.233094  4.898963  4.955286            0           0           0
      6.284979  7.180096  4.955914            0           0           0
      4.959173  0.326624  4.945114            0           0           0
      4.963870  6.419733  2.976344            0           0           0
      7.600973  0.325182  4.946396            0           0           0
      8.919527  1.088405  6.913462            0           0           0
     10.240283  7.951920  6.913011            0           0           0
      8.928128  1.082181  0.988024            0           0           0
     10.247734  7.941044  0.987266            0           0           0
      4.968888  4.898924  4.955270            0           0           0
[...]
      6.270200  8.724964  9.096530            0           0           0
     11.563678  4.151406  9.099627            0           0           0
      8.921174  8.725476  9.096684            0           0           0
     10.236747  1.855104  9.097004            0           0           0
      2.315521  1.862315  9.084035            0           0           0
     11.552104  8.723780  9.100468            0           0           0
     12.875356  6.432584  9.100432            0           0           0
      4.954168  1.856305  9.097719            0           0           0
      7.594862  6.479888  9.152583            0           0           0
      8.952632  4.125700  9.159903            0           0           0
      4.929126  6.448239  9.087030            0           0           0
      7.595644  1.832643  9.087312            0           0           0
      6.239855  4.128014  9.158371            0           0           0
     10.262806  6.448558  9.087285            0           0           0
      7.611092  4.927739 10.137146    -0.049462   -0.014002    0.998678

[...]

   3 f  =   18.106049 THz   113.763661 2PiTHz  603.952765 cm-1    74.880626 meV
             X         Y         Z           dx          dy          dz
     12.878999  7.947891  6.918959            0           0           0
      4.958021  7.951839  6.912846            0           0           0
      3.637815  5.661861  6.915052            0           0           0
     12.887720  7.941333  0.987864            0           0           0
      4.968284  7.940902  0.987883            0           0           0
      3.648115  5.654910  0.987889            0           0           0
      7.603449  1.847659  2.976120            0           0           0
      8.923598  8.706422  2.976146            0           0           0
      2.319280  3.380914  6.917629            0           0           0
      2.328399  3.368554  0.987894            0           0           0
     10.243665  1.847492  2.976312            0           0           0
     12.881008  4.896545  4.945721            0           0           0
      3.642820  1.092268  6.915792            0           0           0
      8.911092  5.659525  6.953187            0           0           0
      4.964605  3.380761  6.930781            0           0           0
      3.647896  1.082252  0.987910            0           0           0
      8.928362  5.654909  0.987490            0           0           0
      4.968684  3.368453  0.987734            0           0           0
     11.563289  8.706198  2.976004            0           0           0
     11.560643  7.183228  4.946321            0           0           0
     12.883675  6.419743  2.976164            0           0           0
      8.923477  4.133841  2.976139            0           0           0
      7.599311  7.951182  6.926733            0           0           0
      7.608531  7.941230  0.987539            0           0           0
     10.243612  6.420120  2.976148            0           0           0
      2.321144  0.325402  4.947879            0           0           0
      7.599403  3.387084  6.954251            0           0           0
      7.608220  3.368816  0.987541            0           0           0
      6.278407  1.088411  6.913438            0           0           0
      6.288209  1.082052  0.987641            0           0           0
     11.563944  4.133428  2.976108            0           0           0
      3.643879  4.133784  2.976377            0           0           0
      0.995410  1.092011  6.915394            0           0           0
      1.007995  1.082290  0.987966            0           0           0
      6.283781  8.706163  2.976135            0           0           0
      7.601307  4.897775  4.964588            0           0           0
      4.963537  1.847473  2.976285            0           0           0
      2.323737  1.847712  2.976412            0           0           0
     14.201568  7.183063  4.946377            0           0           0
     11.560099  5.662017  6.915141            0           0           0
      6.286974  5.660089  6.951910            0           0           0
     11.567787  5.654966  0.987763            0           0           0
      6.288344  5.654902  0.987657            0           0           0
      7.603883  6.420029  2.976043            0           0           0
      6.283603  4.133811  2.976267            0           0           0
      3.644657  2.615888  4.949852            0           0           0
     10.234562  3.380472  6.930903            0           0           0
     10.247721  3.368782  0.987752            0           0           0
     10.242954  0.326636  4.945071            0           0           0
      8.917583  7.179546  4.956241            0           0           0
     10.233094  4.898963  4.955286            0           0           0
      6.284979  7.180096  4.955914            0           0           0
      4.959173  0.326624  4.945114            0           0           0
      4.963870  6.419733  2.976344            0           0           0
      7.600973  0.325182  4.946396            0           0           0
      8.919527  1.088405  6.913462            0           0           0
     10.240283  7.951920  6.913011            0           0           0
      8.928128  1.082181  0.988024            0           0           0
     10.247734  7.941044  0.987266            0           0           0
      4.968888  4.898924  4.955270            0           0           0
[...]
      6.270200  8.724964  9.096530            0           0           0
     11.563678  4.151406  9.099627            0           0           0
      8.921174  8.725476  9.096684            0           0           0
     10.236747  1.855104  9.097004            0           0           0
      2.315521  1.862315  9.084035            0           0           0
     11.552104  8.723780  9.100468            0           0           0
     12.875356  6.432584  9.100432            0           0           0
      4.954168  1.856305  9.097719            0           0           0
      7.594862  6.479888  9.152583            0           0           0
      8.952632  4.125700  9.159903            0           0           0
      4.929126  6.448239  9.087030            0           0           0
      7.595644  1.832643  9.087312            0           0           0
      6.239855  4.128014  9.158371            0           0           0
     10.262806  6.448558  9.087285            0           0           0
      7.611092  4.927739 10.137146     0.890283    0.452606    0.050439

 Finite differences POTIM=  1.500000000000000E-002
  LATTYP: Found a hexagonal cell.
 ALAT       =    10.5600004196
 C/A-ratio  =     2.0833332505

  Lattice vectors:

 A1 = (   5.2800002098,  -9.1452286274,   0.0000000000)
 A2 = ( -10.5600004196,   0.0000000000,   0.0000000000)
 A3 = (   0.0000000000,   0.0000000000, -22.0000000000)

Analysis of symmetry for initial positions (statically):
 Subroutine PRICEL returns:
 Original cell was already a primitive cell.

[...]

The static configuration has the point symmetry C_1 .

Analysis of symmetry for dynamics (positions and initial velocities):
 Subroutine PRICEL returns:
 Original cell was already a primitive cell.

[...]

The dynamic configuration has the point symmetry C_1 .

Analysis of constrained symmetry for selective dynamics:
 Subroutine PRICEL returns:
 Original cell was already a primitive cell.

[...]

The constrained configuration has the point symmetry C_1 .

Analysis of structural, dynamic, and magnetic symmetry:
 Subroutine PRICEL returns:
 Original cell was already a primitive cell.

 Routine SETGRP: Setting up the symmetry group for a
 hexagonal supercell.

 Subroutine GETGRP returns: Found  1 space group operations
 (whereof  1 operations were pure point group operations)
 out of a pool of 24 trial point group operations.

The magnetic configuration has the point symmetry C_1 .

 Subroutine INISYM returns: Found  1 space group operations
 (whereof  1 operations are pure point group operations),
 and found     1 'primitive' translations

 KPOINTS: mesh auto

Automatic generation of k-mesh.
Space group operators:
 irot       det(A)        alpha          n_x          n_y          n_z        tau_x        tau_y        tau_z
    1     1.000000     0.000001     1.000000     0.000000     0.000000     0.000000     0.000000     0.000000

 Subroutine IBZKPT returns following result:

 Found      4 irreducible k-points:

 Following reciprocal coordinates:
            Coordinates               Weight
  0.000000  0.000000  0.000000      1.000000
  0.500000  0.000000  0.000000      1.000000
  0.000000  0.500000  0.000000      1.000000
  0.500000  0.500000  0.000000      1.000000

 Following cartesian coordinates:
            Coordinates               Weight
  0.000000  0.000000  0.000000      1.000000
  0.047348 -0.027337  0.000000      1.000000
  0.000000  0.054673  0.000000      1.000000
  0.047348  0.027337  0.000000      1.000000

 TETIRR: Found     12 inequivalent tetrahedra from       24
 BZINTS: Fermi energy:  1.195074;865.000000 electrons
         Band energy:***********;  BLOECHL correction: -0.006539