 vasp.5.4.4.18Apr17-6-g9f103f2a35 (build Nov 30 2020 22:55:02) complex

 executed on             LinuxIFC date 2023.09.30  17:37:54

 INCAR:
 POTCAR:    PAW_PBE Pt 04Feb2005
 POTCAR:    PAW_PBE Pt 04Feb2005
   VRHFIN =Pt: s1d9

   TITEL  = PAW_PBE Pt 04Feb2005
   POMASS =  195.080; ZVAL   =   10.000    mass and valenz
   ENMAX  =  230.283; ENMIN  =  172.712 eV

 Optimization of the real space projectors (new method)

 maximal supplied QI-value         = 14.36
 optimisation between [QCUT,QGAM] = [ 11.92, 23.98] = [ 39.79,161.09] Ry
 Optimized for a Real-space Cutoff    1.49 Angstroem

   l    n(q)    QCUT    max X(q) W(low)/X(q) W(high)/X(q)  e(spline)
   2     10    11.920    66.195    0.79E-04    0.18E-03    0.24E-06
   2     10    11.920    64.643    0.81E-04    0.19E-03    0.24E-06
   0     11    11.920    95.520    0.28E-04    0.54E-04    0.18E-06
   0     11    11.920    63.403    0.27E-04    0.52E-04    0.17E-06
   1     10    11.920    19.961    0.18E-04    0.11E-03    0.23E-06
   1     10    11.920    13.289    0.25E-04    0.87E-04    0.19E-06
  PAW_PBE Pt 04Feb2005                  :

 POSCAR: Pt111\(1\1\1)\(2)
  positions in direct lattice
  velocities in cartesian coordinates
 exchange correlation table for  LEXCH =        8
   RHO(1)=    0.500       N(1)  =     2000
   RHO(2)=  100.500       N(2)  =     4000

 ion  position               nearest neighbor table
   1  0.001  0.001  0.056-  13 2.63   5 2.64  29 2.64   9 2.64  37 2.64  57 2.65  42 2.82  54 2.84
                            14 2.92
   2  0.334  0.169  0.180-  26 2.61  14 2.62   6 2.63  42 2.64  30 2.64  38 2.67  11 2.79   7 2.81
                             9 2.90  21 2.90  13 2.92  15 3.03
   3  0.167  0.334  0.311-  43 2.63  15 2.63  39 2.63   7 2.63  31 2.65  27 2.65   8 2.74   6 2.80
                            48 2.90  12 2.90  14 3.03  10 3.03
   4  0.000  0.001  0.416-   8 2.64  32 2.64  16 2.64  40 2.65  60 2.65  12 2.65   7 2.80  27 2.83
                            63 2.90
   5  0.001  0.251  0.056-   9 2.63  45 2.63   1 2.64  33 2.64  29 2.65  25 2.65  18 2.86  10 2.90
                            14 2.90
   6  0.333  0.417  0.193-  26 2.63   2 2.63  10 2.63  14 2.63  34 2.63  62 2.63   3 2.80  43 2.80
                            15 2.80   9 3.14  49 3.14  45 3.14
   7  0.168  0.086  0.298-   3 2.63  15 2.63  27 2.64  11 2.64  63 2.67  35 2.67   4 2.80  16 2.80
                             2 2.81  14 2.81  42 2.91  12 3.10
   8  0.001  0.250  0.425-   4 2.64  36 2.64  48 2.64  12 2.64  28 2.65  32 2.65   3 2.74  27 2.98
                            31 2.98
   9  0.251  0.251  0.056-  45 2.62  49 2.62  21 2.63   5 2.63  13 2.64   1 2.64  14 2.90   2 2.90
                             6 3.14
  10  0.085  0.416  0.180-  14 2.61  34 2.62   6 2.63  46 2.64  18 2.64  22 2.67  31 2.79  39 2.81
                            45 2.90   5 2.90  33 2.92   3 3.03
  11  0.417  0.085  0.296-  19 2.62   7 2.64  23 2.64  35 2.64  15 2.65  47 2.67   2 2.79  16 2.83
                            30 2.83  20 2.85  38 2.87  24 2.98
  12  0.249  0.249  0.434-   8 2.64  24 2.64   4 2.65  16 2.65  52 2.66  48 2.66  15 2.90   3 2.90
                             7 3.10
  13  0.250  0.001  0.056-   1 2.63  21 2.64  17 2.64   9 2.64  37 2.64  41 2.65  42 2.82  38 2.84
                             2 2.92
  14  0.085  0.169  0.180-  10 2.61   2 2.62   6 2.63  42 2.64  18 2.64  54 2.67  27 2.79   7 2.81
                             9 2.90   5 2.90   1 2.92   3 3.03
  15  0.416  0.334  0.311-  43 2.63   3 2.63  55 2.63   7 2.63  19 2.65  11 2.65  24 2.74   6 2.80
                            52 2.90  12 2.90   2 3.03  26 3.03
  16  0.251  0.001  0.416-  24 2.64  20 2.64   4 2.64  40 2.65  44 2.65  12 2.65   7 2.80  11 2.83
                            35 2.90
  17  0.500  1.000  0.056-  41 2.64  13 2.64  29 2.65  25 2.65  53 2.65  21 2.65  38 2.83  30 2.86
                            58 2.86
  18  0.834  0.167  0.177-  54 2.64  22 2.64  14 2.64  10 2.64  58 2.66  30 2.66  31 2.83  27 2.83
                            23 2.83   5 2.86  29 2.86  25 2.86
  19  0.665  0.333  0.296-  11 2.62  55 2.64  23 2.64  59 2.64  15 2.65  31 2.67  26 2.79  30 2.83
                            64 2.83  28 2.85  22 2.87  24 2.98
  20  0.500  0.000  0.417-  32 2.64  28 2.64  44 2.64  16 2.64  56 2.65  24 2.65  47 2.85  11 2.85
                            23 2.86
  21  0.499  0.251  0.056-   9 2.63  49 2.63  13 2.64  61 2.64  17 2.65  25 2.65  30 2.86  26 2.90
                             2 2.90
  22  0.833  0.416  0.175-  30 2.64  18 2.64  50 2.64  46 2.64  26 2.67  10 2.67  59 2.79  25 2.83
                            33 2.84  61 2.84  19 2.87  31 2.87
  23  0.667  0.083  0.296-  27 2.64  11 2.64  51 2.64  47 2.64  31 2.64  19 2.64  58 2.83  18 2.83
                            30 2.83  28 2.86  20 2.86  32 2.86
  24  0.500  0.250  0.425-  16 2.64  64 2.64  52 2.64  12 2.64  28 2.65  20 2.65  15 2.74  11 2.98
                            19 2.98
  25  0.750  0.250  0.056-  61 2.64  33 2.64  29 2.65  17 2.65   5 2.65  21 2.65  22 2.83  30 2.86
                            18 2.86
  26  0.581  0.416  0.180-   2 2.61  62 2.62   6 2.63  50 2.64  30 2.64  22 2.67  19 2.79  55 2.81
                            49 2.90  21 2.90  61 2.92  15 3.03
  27  0.918  0.085  0.296-  31 2.62   7 2.64  23 2.64  63 2.64   3 2.65  51 2.67  14 2.79   4 2.83
                            18 2.83  32 2.85  54 2.87   8 2.98
  28  0.750  0.250  0.417-  20 2.64  32 2.64  64 2.64  36 2.64   8 2.65  24 2.65  31 2.85  19 2.85
                            23 2.86
  29  0.750  1.000  0.056-  57 2.64   1 2.64  25 2.65  17 2.65  53 2.65   5 2.65  54 2.83  18 2.86
                            58 2.86
  30  0.583  0.167  0.177-  38 2.64  22 2.64  26 2.64   2 2.64  18 2.66  58 2.66  19 2.83  11 2.83
                            23 2.83  21 2.86  17 2.86  25 2.86
  31  0.918  0.333  0.296-  27 2.62  39 2.64  23 2.64  59 2.64   3 2.65  19 2.67  10 2.79  36 2.83
                            18 2.83  28 2.85  22 2.87   8 2.98
  32  0.750  0.000  0.417-  20 2.64  28 2.64  60 2.64   4 2.64  56 2.65   8 2.65  51 2.85  27 2.85
                            23 2.86
  33  0.001  0.500  0.056-  41 2.63   5 2.64  25 2.64  45 2.64  37 2.64  61 2.65  46 2.82  22 2.84
                            10 2.92
  34  0.334  0.665  0.180-  62 2.61  10 2.62   6 2.63  46 2.64  58 2.64  38 2.67  47 2.79  39 2.81
                            45 2.90  53 2.90  41 2.92  43 3.03
  35  0.168  0.834  0.292-  11 2.64  47 2.64  59 2.66  63 2.66   7 2.67  39 2.67  38 2.79  46 2.81
                            42 2.81  40 2.82  16 2.90  44 2.91
  36  0.000  0.499  0.416-   8 2.64  28 2.64  44 2.64  40 2.65  64 2.65  48 2.65  39 2.80  31 2.83
                            59 2.90
  37  1.000  0.750  0.056-   1 2.64  13 2.64  57 2.64  41 2.64  33 2.64  61 2.64  42 2.83  50 2.83
                            46 2.83
  38  0.334  0.917  0.175-  30 2.64  58 2.64  46 2.64  42 2.64  34 2.67   2 2.67  35 2.79  17 2.83
                            41 2.84  13 2.84  11 2.87  47 2.87
  39  0.168  0.582  0.298-   3 2.63  43 2.63  47 2.64  31 2.64  35 2.67  59 2.67  36 2.80  44 2.80
                            34 2.81  10 2.81  46 2.91  48 3.10
  40  1.000  0.750  0.410-  44 2.65  36 2.65  64 2.65  60 2.65   4 2.65  16 2.65  59 2.82  35 2.82
                            63 2.82
  41  0.250  0.749  0.056-  33 2.63  53 2.64  17 2.64  45 2.64  37 2.64  13 2.65  46 2.82  38 2.84
                            34 2.92
  42  0.084  0.918  0.175-   2 2.64  14 2.64  38 2.64  54 2.64  50 2.67  46 2.67  63 2.81  35 2.81
                            13 2.82   1 2.82  37 2.83   7 2.91
  43  0.416  0.582  0.311-   3 2.63  15 2.63  39 2.63  55 2.63  47 2.65  51 2.65  56 2.74   6 2.80
                            52 2.90  48 2.90  62 3.03  34 3.03
  44  0.251  0.750  0.416-  56 2.64  20 2.64  36 2.64  40 2.65  16 2.65  48 2.65  39 2.80  47 2.83
                            35 2.91
  45  0.251  0.499  0.056-  49 2.62   9 2.62  53 2.63   5 2.63  41 2.64  33 2.64  10 2.90  34 2.90
                             6 3.14
  46  0.084  0.666  0.175-  34 2.64  10 2.64  38 2.64  22 2.64  42 2.67  50 2.67  35 2.81  59 2.81
                            41 2.82  33 2.82  37 2.83  39 2.91
  47  0.417  0.832  0.296-  51 2.62  39 2.64  23 2.64  35 2.64  43 2.65  11 2.67  34 2.79  44 2.83
                            58 2.83  20 2.85  38 2.87  56 2.98
  48  0.249  0.500  0.434-   8 2.64  56 2.64  36 2.65  44 2.65  12 2.66  52 2.66  43 2.90   3 2.90
                            39 3.10
  49  0.499  0.499  0.056-  45 2.62   9 2.62  21 2.63  53 2.63  61 2.64  57 2.64  26 2.90  62 2.90
                             6 3.14
  50  0.832  0.666  0.175-  62 2.64  26 2.64  54 2.64  22 2.64  42 2.67  46 2.67  63 2.81  59 2.81
                            61 2.82  57 2.82  37 2.83  55 2.91
  51  0.665  0.832  0.296-  47 2.62  55 2.64  23 2.64  63 2.64  43 2.65  27 2.67  62 2.79  60 2.83
                            58 2.83  32 2.85  54 2.87  56 2.98
  52  0.501  0.500  0.434-  24 2.64  56 2.64  60 2.65  64 2.65  12 2.66  48 2.66  43 2.90  15 2.90
                            55 3.10
  53  0.499  0.749  0.056-  49 2.63  45 2.63  41 2.64  57 2.64  17 2.65  29 2.65  58 2.86  34 2.90
                            62 2.90
  54  0.833  0.917  0.175-  58 2.64  18 2.64  50 2.64  42 2.64  62 2.67  14 2.67  63 2.79  29 2.83
                            57 2.84   1 2.84  27 2.87  51 2.87
  55  0.664  0.582  0.298-  15 2.63  43 2.63  51 2.64  19 2.64  63 2.67  59 2.67  64 2.80  60 2.80
                            26 2.81  62 2.81  50 2.91  52 3.10
  56  0.500  0.749  0.425-  60 2.64  44 2.64  52 2.64  48 2.64  20 2.65  32 2.65  43 2.74  51 2.98
                            47 2.98
  57  0.749  0.749  0.056-  61 2.63  53 2.64  29 2.64  49 2.64  37 2.64   1 2.65  50 2.82  54 2.84
                            62 2.92
  58  0.583  0.916  0.177-  54 2.64  38 2.64  62 2.64  34 2.64  18 2.66  30 2.66  47 2.83  51 2.83
                            23 2.83  53 2.86  29 2.86  17 2.86
  59  0.916  0.582  0.292-  31 2.64  19 2.64  35 2.66  63 2.66  55 2.67  39 2.67  22 2.79  46 2.81
                            50 2.81  40 2.82  64 2.90  36 2.90
  60  0.749  0.750  0.416-  56 2.64  32 2.64  64 2.64  40 2.65   4 2.65  52 2.65  55 2.80  51 2.83
                            63 2.91
  61  0.749  0.500  0.056-  57 2.63  21 2.64  25 2.64  49 2.64  37 2.64  33 2.65  50 2.82  22 2.84
                            26 2.92
  62  0.581  0.665  0.180-  34 2.61  26 2.62   6 2.63  50 2.64  58 2.64  54 2.67  51 2.79  55 2.81
                            49 2.90  53 2.90  57 2.92  43 3.03
  63  0.916  0.834  0.292-  27 2.64  51 2.64  59 2.66  35 2.66   7 2.67  55 2.67  54 2.79  50 2.81
                            42 2.81  40 2.82   4 2.90  60 2.91
  64  0.749  0.499  0.416-  24 2.64  28 2.64  60 2.64  40 2.65  36 2.65  52 2.65  55 2.80  19 2.83
                            59 2.90

  LATTYP: Found a hexagonal cell.
 ALAT       =    10.5600004196
 C/A-ratio  =     1.8939393187

  Lattice vectors:

 A1 = (  10.5600004196,   0.0000000000,   0.0000000000)
 A2 = (  -5.2800002098,   9.1452286274,   0.0000000000)
 A3 = (   0.0000000000,   0.0000000000,  20.0000000000)

[...]
    416      10.4063      0.00000
    417      10.4270      0.00000
    418      10.4389      0.00000
    419      10.4464      0.00000
    420      10.4689      0.00000

[...]

 soft charge-density along one line, spin component           2
         0         1         2         3         4         5         6         7         8         9
 total charge-density along one line

------------------------ aborting loop because EDIFF is reached ----------------------------------------

         DFTD3 V3.0 Rev 1
 Edisp (eV)  -38.50887

 E6    (eV) :   -14.1984
 E8    (eV) :   -24.3105
 % E8        : 63.13

  FORCE on cell =-STRESS in cart. coord.  units (eV):
  Direction    XX          YY          ZZ          XY          YZ          ZX
  Alpha Z  2015.86452  2015.86452  2015.86452
  Ewald  161377.69877161378.44693************     0.07695     0.26329    -0.11056
  Hartree172345.63338172345.89610************     0.02243     0.05960    -0.04248
  E(xc)   -2855.06397 -2855.05779 -2880.46564     0.00071     0.00251    -0.00070
  Local  ************************355697.34431    -0.08016    -0.23666     0.12841
  n-local   569.65074   569.69916   311.49755     0.00381    -0.00298    -0.00038
  augment  3255.92495  3255.84866  3528.10187    -0.00882    -0.02864     0.00822
  Kinetic  9155.23944  9155.07458  9730.29655    -0.01871    -0.06452     0.01843
  Fock        0.00000     0.00000     0.00000     0.00000     0.00000     0.00000
  vdW       -52.87895   -52.88807   -28.15196    -0.00105     0.00116    -0.00001
  Total      75.74753    75.71926    -0.44407    -0.00486    -0.00625     0.00093
  in kB      62.83340    62.80995    -0.36836    -0.00403    -0.00518     0.00077

 VOLUME and BASIS-vectors are now :
  energy-cutoff  :      550.00
  volume of cell :     1931.47
      direct lattice vectors                 reciprocal lattice vectors
    10.560000420  0.000000000  0.000000000     0.094696966  0.054673319  0.000000000
    -5.280000210  9.145228627  0.000000000     0.000000000  0.109346638  0.000000000
     0.000000000  0.000000000 20.000000000     0.000000000  0.000000000  0.050000000

  length of vectors
    10.560000420 10.560000420 20.000000000     0.109346638  0.109346638  0.050000000

 FORCES acting on ions
    electron-ion (+dipol)            ewald-force                    non-local-force                 convergence-correction
   0.121E+01 -.147E+02 0.231E+04   -.107E+01 0.148E+02 -.231E+04   -.146E+00 -.611E-01 -.255E+00   -.641E-02 -.109E-02 -.751E-03
   0.943E+01 -.265E+02 0.756E+03   -.958E+01 0.268E+02 -.756E+03   0.172E+00 -.304E+00 -.656E+00   0.357E-02 -.124E-02 -.361E-02
   0.707E+01 0.413E+01 -.931E+03   -.719E+01 -.420E+01 0.931E+03   0.659E-01 0.350E-01 0.204E+00   -.572E-03 -.486E-03 -.543E-02
   0.155E+01 0.363E+02 -.226E+04   -.153E+01 -.359E+02 0.226E+04   -.255E-01 -.355E+00 0.313E-01   -.146E-02 -.103E-02 -.189E-02
   -.127E+02 -.735E+01 0.230E+04   0.130E+02 0.751E+01 -.230E+04   -.282E+00 -.162E+00 -.116E+00   -.101E-01 -.601E-02 -.568E-03
   -.369E-01 -.249E-01 0.592E+03   0.374E-01 0.244E-01 -.591E+03   0.966E-03 0.894E-03 -.129E+01   0.200E-03 -.560E-04 -.317E-02
   0.174E+00 -.182E+01 -.777E+03   -.175E+00 0.198E+01 0.777E+03   -.629E-02 -.130E+00 0.134E+00   -.277E-03 -.158E-02 -.348E-02
   0.444E+02 0.255E+02 -.234E+04   -.436E+02 -.251E+02 0.234E+04   -.724E+00 -.416E+00 0.461E+00   -.305E-02 -.171E-02 -.254E-02
   -.658E-02 -.228E+02 0.227E+04   0.678E-02 0.230E+02 -.227E+04   -.261E-03 -.197E+00 0.150E+00   0.275E-03 -.397E-02 -.742E-03
   -.276E+02 0.507E+01 0.756E+03   0.279E+02 -.509E+01 -.756E+03   -.352E+00 0.279E-02 -.656E+00   -.275E-02 -.264E-02 -.332E-02
   -.107E+01 -.134E+01 -.748E+03   0.109E+01 0.155E+01 0.748E+03   0.160E-01 -.202E+00 0.436E+00   0.975E-03 -.823E-03 -.423E-02
   0.425E-01 0.454E+02 -.240E+04   -.422E-01 -.451E+02 0.240E+04   -.602E-03 -.344E+00 0.450E+00   -.143E-03 -.249E-02 -.280E-02
   -.120E+01 -.147E+02 0.231E+04   0.106E+01 0.148E+02 -.231E+04   0.147E+00 -.607E-01 -.256E+00   0.659E-02 -.875E-03 -.787E-03
   -.941E+01 -.264E+02 0.756E+03   0.956E+01 0.267E+02 -.755E+03   -.172E+00 -.306E+00 -.656E+00   -.346E-02 -.138E-02 -.337E-02
   -.698E+01 0.404E+01 -.931E+03   0.709E+01 -.411E+01 0.931E+03   -.678E-01 0.376E-01 0.204E+00   0.464E-03 -.289E-03 -.555E-02
   -.156E+01 0.364E+02 -.226E+04   0.154E+01 -.360E+02 0.226E+04   0.261E-01 -.358E+00 0.318E-01   0.125E-02 -.111E-02 -.168E-02
   -.259E+01 -.140E+01 0.232E+04   0.248E+01 0.133E+01 -.232E+04   0.116E+00 0.634E-01 -.397E+00   0.636E-02 0.375E-02 0.395E-03
   -.722E+01 -.424E+01 0.803E+03   0.741E+01 0.435E+01 -.803E+03   -.206E+00 -.116E+00 -.368E+00   -.471E-02 -.291E-02 -.871E-02
   0.646E+00 0.155E+01 -.748E+03   -.823E+00 -.167E+01 0.748E+03   0.183E+00 0.894E-01 0.435E+00   0.130E-02 -.305E-03 -.412E-02
   -.111E+01 -.796E+00 -.226E+04   0.109E+01 0.783E+00 0.226E+04   0.352E-01 0.235E-01 0.206E-02   0.592E-03 0.521E-03 0.161E-02
   0.128E+02 -.738E+01 0.230E+04   -.130E+02 0.754E+01 -.230E+04   0.281E+00 -.162E+00 -.115E+00   0.101E-01 -.587E-02 -.561E-03
   -.439E-01 0.660E+01 0.809E+03   0.437E-01 -.654E+01 -.809E+03   0.196E-02 -.675E-01 -.197E+00   -.192E-03 -.498E-02 -.584E-02
   0.179E+00 -.670E-01 -.722E+03   -.181E+00 0.674E-01 0.722E+03   -.516E-02 0.129E-03 0.409E+00   0.616E-04 0.144E-03 -.447E-02
   -.444E+02 0.256E+02 -.234E+04   0.437E+02 -.252E+02 0.234E+04   0.724E+00 -.416E+00 0.461E+00   0.308E-02 -.160E-02 -.246E-02
   -.218E-01 0.296E+01 0.232E+04   0.215E-01 -.283E+01 -.232E+04   0.194E-02 -.134E+00 -.398E+00   -.259E-03 -.760E-02 0.321E-03
   0.277E+02 0.510E+01 0.756E+03   -.280E+02 -.512E+01 -.756E+03   0.349E+00 0.172E-03 -.657E+00   0.271E-02 -.245E-02 -.360E-02
   0.708E+00 -.137E+01 -.748E+03   -.720E+00 0.158E+01 0.748E+03   -.313E-02 -.202E+00 0.434E+00   -.779E-03 -.904E-03 -.407E-02
   -.148E-01 0.134E+01 -.226E+04   0.147E-01 -.132E+01 0.226E+04   -.694E-03 -.424E-01 0.106E-02   0.945E-04 -.541E-03 0.154E-02
   0.258E+01 -.140E+01 0.232E+04   -.247E+01 0.134E+01 -.232E+04   -.116E+00 0.638E-01 -.397E+00   -.654E-02 0.357E-02 0.413E-03
   0.721E+01 -.421E+01 0.803E+03   -.740E+01 0.433E+01 -.803E+03   0.206E+00 -.117E+00 -.366E+00   0.457E-02 -.278E-02 -.896E-02
   -.736E+00 0.133E+01 -.748E+03   0.913E+00 -.145E+01 0.748E+03   -.181E+00 0.960E-01 0.436E+00   -.125E-02 -.468E-03 -.398E-02
   0.110E+01 -.795E+00 -.226E+04   -.108E+01 0.783E+00 0.226E+04   -.348E-01 0.231E-01 0.440E-02   -.436E-03 0.557E-03 0.154E-02
   -.122E+02 0.841E+01 0.231E+04   0.123E+02 -.832E+01 -.231E+04   -.125E+00 -.970E-01 -.257E+00   -.422E-02 -.501E-02 -.911E-03
   -.182E+02 0.213E+02 0.756E+03   0.184E+02 -.216E+02 -.756E+03   -.179E+00 0.303E+00 -.658E+00   0.852E-03 0.385E-02 -.355E-02
   -.455E-01 0.983E-01 -.698E+03   0.189E+00 -.176E-01 0.697E+03   -.132E+00 -.779E-01 0.463E+00   -.138E-02 -.722E-03 -.300E-02
   0.321E+02 -.168E+02 -.226E+04   -.318E+02 0.166E+02 0.226E+04   -.320E+00 0.159E+00 0.304E-01   -.154E-02 -.794E-03 -.173E-02
   -.351E-02 -.136E-01 0.232E+04   0.346E-02 0.143E-01 -.232E+04   0.254E-03 -.415E-03 -.383E+00   -.880E-04 0.914E-04 -.908E-03
   -.570E+01 -.319E+01 0.809E+03   0.565E+01 0.316E+01 -.809E+03   0.568E-01 0.302E-01 -.197E+00   0.431E-02 0.265E-02 -.614E-02
   -.137E+01 0.922E+00 -.777E+03   0.151E+01 -.999E+00 0.777E+03   -.119E+00 0.666E-01 0.132E+00   -.148E-02 0.618E-03 -.327E-02
   -.577E-01 -.788E-01 -.222E+04   0.577E-01 0.781E-01 0.222E+04   0.986E-03 0.254E-02 0.274E+00   -.284E-04 -.133E-03 -.143E-02
   -.134E+02 0.630E+01 0.231E+04   0.134E+02 -.645E+01 -.231E+04   0.204E-01 0.157E+00 -.256E+00   0.241E-02 0.637E-02 -.866E-03
   0.392E-01 -.129E+02 0.814E+03   -.399E-01 0.132E+02 -.814E+03   -.120E-03 -.294E+00 -.130E+00   -.924E-04 -.614E-03 -.214E-02
   -.590E-01 -.810E+01 -.931E+03   0.598E-01 0.823E+01 0.931E+03   0.220E-02 -.759E-01 0.205E+00   0.115E-03 0.539E-03 -.557E-02
   0.308E+02 -.195E+02 -.226E+04   -.305E+02 0.192E+02 0.226E+04   -.301E+00 0.199E+00 0.321E-01   -.348E-03 0.151E-02 -.166E-02
   -.198E+02 0.114E+02 0.227E+04   0.199E+02 -.115E+02 -.227E+04   -.171E+00 0.967E-01 0.148E+00   -.316E-02 0.202E-02 -.825E-03
   -.113E+02 0.647E+01 0.814E+03   0.115E+02 -.661E+01 -.814E+03   -.255E+00 0.147E+00 -.131E+00   -.708E-03 0.582E-03 -.214E-02
   -.153E+01 -.168E+00 -.748E+03   0.172E+01 0.728E-01 0.748E+03   -.174E+00 0.113E+00 0.433E+00   -.289E-03 0.136E-02 -.424E-02
   0.394E+02 -.227E+02 -.240E+04   -.391E+02 0.225E+02 0.240E+04   -.302E+00 0.172E+00 0.452E+00   -.230E-02 0.115E-02 -.277E-02
   0.197E+02 0.115E+02 0.227E+04   -.199E+02 -.116E+02 -.227E+04   0.171E+00 0.960E-01 0.149E+00   0.356E-02 0.190E-02 -.743E-03
   0.113E+02 0.642E+01 0.814E+03   -.115E+02 -.656E+01 -.814E+03   0.255E+00 0.148E+00 -.132E+00   0.399E-03 0.497E-03 -.210E-02
   0.151E+01 0.104E-01 -.749E+03   -.170E+01 -.106E+00 0.748E+03   0.176E+00 0.106E+00 0.433E+00   0.593E-03 0.131E-02 -.430E-02
   -.393E+02 -.227E+02 -.240E+04   0.390E+02 0.225E+02 0.240E+04   0.297E+00 0.172E+00 0.451E+00   0.222E-02 0.123E-02 -.279E-02
   -.110E-01 0.146E+02 0.230E+04   0.104E-01 -.149E+02 -.230E+04   0.278E-03 0.327E+00 -.115E+00   0.108E-03 0.118E-01 -.524E-03
   0.562E+01 -.323E+01 0.809E+03   -.557E+01 0.320E+01 -.809E+03   -.553E-01 0.324E-01 -.198E+00   -.429E-02 0.241E-02 -.587E-02
   0.159E+01 0.809E+00 -.777E+03   -.173E+01 -.886E+00 0.777E+03   0.112E+00 0.695E-01 0.131E+00   0.142E-02 0.904E-03 -.350E-02
   0.106E-01 -.511E+02 -.234E+04   -.110E-01 0.503E+02 0.234E+04   0.122E-02 0.831E+00 0.463E+00   0.616E-04 0.340E-02 -.240E-02
   0.134E+02 0.629E+01 0.231E+04   -.134E+02 -.644E+01 -.231E+04   -.207E-01 0.158E+00 -.255E+00   -.242E-02 0.606E-02 -.731E-03
   0.458E-01 0.839E+01 0.803E+03   -.458E-01 -.862E+01 -.803E+03   -.143E-02 0.237E+00 -.368E+00   0.408E-04 0.540E-02 -.888E-02
   -.134E+00 0.363E-01 -.698E+03   0.136E+00 -.201E+00 0.697E+03   0.240E-02 0.154E+00 0.463E+00   -.430E-04 0.139E-02 -.289E-02
   -.307E+02 -.196E+02 -.226E+04   0.304E+02 0.193E+02 0.226E+04   0.299E+00 0.201E+00 0.316E-01   0.387E-03 0.174E-02 -.181E-02
   0.122E+02 0.842E+01 0.231E+04   -.123E+02 -.833E+01 -.231E+04   0.127E+00 -.975E-01 -.256E+00   0.382E-02 -.513E-02 -.835E-03
   0.182E+02 0.214E+02 0.756E+03   -.184E+02 -.217E+02 -.755E+03   0.178E+00 0.300E+00 -.656E+00   -.566E-03 0.370E-02 -.355E-02
   0.718E-01 -.697E-01 -.698E+03   -.215E+00 0.151E+00 0.697E+03   0.129E+00 -.725E-01 0.463E+00   0.107E-02 -.698E-03 -.304E-02
   -.322E+02 -.167E+02 -.226E+04   0.319E+02 0.166E+02 0.226E+04   0.321E+00 0.160E+00 0.305E-01   0.171E-02 -.738E-03 -.172E-02
   0.738E-03 -.948E-03 0.192E+01   0.352E-12 0.860E-12 0.773E-11   -.250E-02 0.840E-02 -.171E+01   -.837E-04 -.134E-04 -.172E+00

 POSITION                                       TOTAL-FORCE (eV/Angst)
      0.00425      0.00798      1.11585        -0.003940     -0.007403     -0.127058
      2.62813      1.54723      3.60761        -0.000012      0.008682      0.005382
      0.00424      3.05034      6.25686        -0.007029     -0.007569     -0.001724
     -0.00251      0.00556      8.31340         0.002194      0.005181     -0.001185
     -1.30798      2.29337      1.11585         0.000270      0.001080      0.092623
      1.32004      3.81028      3.92068         0.001777      0.000140      0.011683
      1.32034      0.78790      5.98208        -0.007299      0.002541     -0.001460
     -1.31483      2.28822      8.52454         0.003690      0.004052      0.002776
      1.31996      2.29642      1.11585         0.000293      0.009487      0.256381
     -1.29377      3.80912      3.60726         0.004472     -0.004339      0.005929
      3.95761      0.77858      5.92200         0.008354      0.006818      0.010793
      1.32025      2.27409      8.70849        -0.000434      0.001121      0.012923
      2.63563      0.00798      1.11585         0.004453     -0.006921     -0.127554
      0.01204      1.54725      3.60772         0.000064      0.005887      0.006143
      2.63616      3.05030      6.25675         0.005492     -0.003906     -0.001263
      2.64278      0.00567      8.31344        -0.001441      0.003128     -0.000140
     -0.00508      9.14258      1.11585         0.000576     -0.002660     -0.064893
      7.93083      1.53008      3.51374        -0.008204     -0.001504     -0.004070
      5.26426      3.04165      5.92192        -0.003090     -0.008580      0.010031
      5.28291      0.00069      8.30630         0.007923      0.006412     -0.002940
      3.94790      2.29339      1.11585        -0.001556      0.001220      0.092952
      6.60000      3.80687      3.49652         0.001657     -0.001612     -0.000658
      6.60027      0.76169      5.87316        -0.006819      0.000588      0.017073
      3.95528      2.28824      8.52444        -0.002401      0.003258      0.003287
      6.59989      2.29228      1.11585         0.001360     -0.000117     -0.065383
      3.93404      3.80929      3.60769        -0.007552     -0.006072      0.006051
      9.24220      0.77851      5.92216         0.006866      0.006557      0.009918
      6.60026      2.28241      8.30596        -0.000805     -0.011274     -0.002890
      2.64503      9.14255      1.11585        -0.000807     -0.002063     -0.064684
      5.26929      1.53017      3.51373         0.008508     -0.002828     -0.002686
      7.93602      3.04138      5.92155         0.004412     -0.000048      0.011117
      7.91735      0.00067      8.30602        -0.007406      0.005724      0.000479
     -2.63114      4.57259      1.11585        -0.007649     -0.000332     -0.128282
      0.01424      6.07466      3.60773         0.005762     -0.001792      0.005808
     -2.62778      7.62751      5.82384        -0.003311     -0.005733      0.009989
     -2.63567      4.56629      8.31344         0.006984      0.002154     -0.002093
     -3.96007      6.85906      1.11585         0.000144      0.000303     -0.264143
     -1.31681      8.38487      3.49677        -0.000152     -0.003309     -0.001491
     -1.29660      5.32102      5.98219        -0.004429     -0.000206     -0.002798
      6.60015      6.85795      8.18057         0.001130      0.001618      0.017281
     -1.31541      6.85145      1.11585        -0.003922      0.007536     -0.127110
     -3.95991      8.40114      3.48494        -0.000922     -0.015883     -0.002636
      1.32015      5.32966      6.25703         0.003053      0.008413     -0.000993
     -1.31286      6.85728      8.31374        -0.000859     -0.005986     -0.000010
      0.00857      4.56786      1.11585         0.007800     -0.005970      0.255508
     -2.62417      6.08760      3.48503        -0.012581      0.008663     -0.001961
      0.01377      7.61005      5.92234         0.002469      0.000357      0.009587
     -0.00944      4.57740      8.70882        -0.002395     -0.000045      0.012465
      2.63128      4.56789      1.11585        -0.007388     -0.006603      0.256226
      5.26437      6.08755      3.48505         0.012518      0.009888     -0.002341
      2.62648      7.61025      5.92242        -0.001084     -0.007728      0.009566
      2.65013      4.57738      8.70872        -0.000693     -0.000199      0.013001
      1.31993      6.84508      1.11585        -0.000169      0.002188      0.093036
      3.95691      8.38475      3.49689         0.002632     -0.001567     -0.002321
      3.93739      5.32099      5.98261        -0.003796      0.003411     -0.003141
      1.32016      6.85259      8.52518         0.000906     -0.009020      0.004228
      3.95532      6.85139      1.11585         0.003513      0.008129     -0.127028
      1.32013      8.37054      3.51397        -0.001398      0.007672     -0.003621
      6.60012      5.32032      5.82381         0.003594      0.005934      0.009159
      3.95322      6.85718      8.31391        -0.000750     -0.004791     -0.001102
      5.27095      4.57261      1.11585         0.008560     -0.000713     -0.127694
      2.62598      6.07476      3.60783        -0.006306     -0.003878      0.007113
      5.26824      7.62731      5.82389         0.001263      0.000273      0.010236
      5.27616      4.56628      8.31384        -0.006085      0.002239     -0.001388
    total drift:                               -0.001845      0.007436      0.044032

  FREE ENERGIE OF THE ION-ELECTRON SYSTEM (eV)
  free  energy   TOTEN  =      -405.07609946 eV

  energy  without entropy=     -405.03565820  energy(sigma->0) =     -405.06261904

 d Force = 0.3975865E-03[ 0.117E-03, 0.678E-03]  d Energy = 0.4001461E-03-0.256E-05
 d Force = 0.2849391E+02[ 0.285E+02, 0.285E+02]  d Ewald  = 0.2849390E+02 0.113E-04

 reached required accuracy - stopping structural energy minimisation