 vasp.5.4.4.18Apr17-6-g9f103f2a35 (build Nov 30 2020 22:55:02) complex

 executed on             LinuxIFC date 2023.09.11  18:26:11

 INCAR:
 POTCAR:    PAW_PBE Fe 06Sep2000
 POTCAR:    PAW_PBE Pt 04Feb2005
 POTCAR:    PAW_PBE H 15Jun2001

 POTCAR:    PAW_PBE Fe 06Sep2000
   VRHFIN =Fe:  d7 s1

   TITEL  = PAW_PBE Fe 06Sep2000
   POMASS =   55.847; ZVAL   =    8.000    mass and valenz
   ENMAX  =  267.882; ENMIN  =  200.911 eV

 POTCAR:    PAW_PBE Pt 04Feb2005
   VRHFIN =Pt: s1d9

   TITEL  = PAW_PBE Pt 04Feb2005
   POMASS =  195.080; ZVAL   =   10.000    mass and valenz
   ENMAX  =  230.283; ENMIN  =  172.712 eV

 POTCAR:    PAW_PBE H 15Jun2001
   VRHFIN =H: ultrasoft test

   TITEL  = PAW_PBE H 15Jun2001
   POMASS =    1.000; ZVAL   =    1.000    mass and valenz
   ENMAX  =  250.000; ENMIN  =  200.000 eV

 Optimization of the real space projectors (new method)

 maximal supplied QI-value         = 16.25
 optimisation between [QCUT,QGAM] = [ 11.86, 23.89] = [ 39.41,159.82] Ry
 Optimized for a Real-space Cutoff    1.49 Angstroem

   l    n(q)    QCUT    max X(q) W(low)/X(q) W(high)/X(q)  e(spline)
   2     10    11.864    80.901    0.13E-03    0.23E-03    0.37E-06
   2     10    11.864    75.754    0.13E-03    0.23E-03    0.38E-06
   0     11    11.864    58.752    0.44E-04    0.11E-04    0.20E-06
   0     11    11.864    30.679    0.36E-04    0.10E-04    0.18E-06
   1     10    11.864    17.977    0.31E-04    0.45E-04    0.10E-06
   1     10    11.864    13.559    0.25E-04    0.37E-04    0.89E-07
 Optimization of the real space projectors (new method)

[...]

   l    n(q)    QCUT    max X(q) W(low)/X(q) W(high)/X(q)  e(spline)
   2     10    11.920    66.195    0.79E-04    0.18E-03    0.24E-06
   2     10    11.920    64.643    0.81E-04    0.19E-03    0.24E-06
   0     11    11.920    95.520    0.28E-04    0.54E-04    0.18E-06
   0     11    11.920    63.403    0.27E-04    0.52E-04    0.17E-06
   1     10    11.920    19.961    0.18E-04    0.11E-03    0.23E-06
   1     10    11.920    13.289    0.25E-04    0.87E-04    0.19E-06
 Optimization of the real space projectors (new method)

 maximal supplied QI-value         = 34.20
 optimisation between [QCUT,QGAM] = [ 11.97, 23.94] = [ 40.13,160.53] Ry
 Optimized for a Real-space Cutoff    1.18 Angstroem

   l    n(q)    QCUT    max X(q) W(low)/X(q) W(high)/X(q)  e(spline)
   0      8    11.971    19.460    0.15E-03    0.31E-03    0.25E-06
   0      8    11.971    12.209    0.13E-03    0.29E-03    0.25E-06
   1      8    11.971     4.655    0.22E-03    0.24E-03    0.21E-06
  PAW_PBE Fe 06Sep2000                  :
  PAW_PBE Pt 04Feb2005                  :
  PAW_PBE H 15Jun2001                   :

 POSCAR: PtM\(2)
  positions in cartesian coordinates
 exchange correlation table for  LEXCH =        8
   RHO(1)=    0.500       N(1)  =     2000
   RHO(2)=  100.500       N(2)  =     4000

 ion  position               nearest neighbor table
   1  0.790  0.876  0.310-  55 2.46  39 2.50  20 2.55  56 2.61   2 2.63  73 2.64  72 2.64  65 2.68
                             3 2.68  29 2.70  40 2.73  57 2.79
   2  0.041  0.872  0.317-  49 2.45  23 2.52  39 2.55  52 2.57  77 2.60  65 2.62  67 2.62   1 2.63
                             3 2.64  33 2.65  41 2.66  56 2.68
   3  0.043  0.621  0.315-  39 2.47  12 2.50  41 2.57  60 2.57  73 2.58  15 2.61  77 2.62  66 2.63
                             2 2.64   9 2.65   1 2.68  40 2.72
   4  0.803  0.862  0.045-  21 2.49  19 2.50   5 2.52  62 2.56  58 2.61   6 2.66  42 2.67  59 2.69
                            30 2.87
   5  0.040  0.862  0.053-  62 2.43  54 2.47  35 2.51   4 2.52  24 2.55  43 2.60  58 2.63  34 2.64
                             6 2.65
   6  0.051  0.606  0.043-  43 2.49  32 2.50  21 2.51  18 2.51  54 2.52  42 2.52   5 2.65   4 2.66
                            10 2.67
   7  0.618  0.209  0.135-  63 2.43  55 2.44  58 2.46  64 2.46  30 2.48  28 2.48  37 2.59  22 2.60
                            19 2.61  45 2.63  11 2.70  62 2.75
   8  0.377  0.952  0.132-  59 2.39  50 2.44  24 2.48  16 2.48  53 2.49  26 2.57  38 2.58  19 2.63
                            35 2.65  25 2.66  37 2.75  44 2.78
   9  0.039  0.372  0.316-  61 2.48  12 2.50  13 2.54  68 2.59  46 2.61  66 2.61  33 2.62  71 2.63
                            15 2.64  40 2.65   3 2.65  47 2.68
  10  0.051  0.353  0.049-  38 2.44  16 2.47  31 2.50  32 2.53  42 2.58  18 2.60  34 2.62  48 2.66
                             6 2.67
  11  0.880  0.196  0.141-  49 2.44  61 2.44  34 2.46  48 2.46  63 2.49  58 2.51  62 2.64  31 2.67
                             7 2.70  38 2.71  35 2.71  22 2.73
  12  0.969  0.531  0.224-  31 2.44  21 2.47  40 2.49  32 2.50   9 2.50   3 2.50  46 2.56  60 2.59
                            39 2.62  61 2.64  20 2.74  51 2.77
  13  0.281  0.133  0.315-  26 2.47  46 2.51   9 2.54  15 2.57  57 2.61  74 2.61  69 2.61  33 2.63
                            53 2.63  71 2.64  29 2.64  23 2.72
  14  0.522  0.624  0.311-  36 2.44  50 2.52  41 2.52  51 2.59  80 2.61  23 2.63  27 2.64  76 2.67
                            75 2.72  57 2.73  47 2.74  40 2.77
  15  0.288  0.373  0.317-  46 2.45  60 2.47  64 2.54  41 2.56  13 2.57  29 2.58  27 2.59  74 2.60
                             3 2.61  66 2.64   9 2.64  79 2.71
  16  0.289  0.123  0.044-  10 2.47   8 2.48  38 2.52  37 2.54  34 2.57  18 2.59  59 2.60  24 2.64
                            30 2.65
  17  0.528  0.627  0.045-  44 2.35  25 2.43  22 2.51  28 2.66  43 2.66  24 2.73  59 2.74  48 2.82
                            42 2.90
  18  0.289  0.369  0.048-  32 2.36  37 2.37  45 2.39   6 2.51  30 2.53  43 2.55  16 2.59  10 2.60
                            28 2.67
  19  0.623  0.959  0.131-  59 2.39  20 2.46  53 2.49   4 2.50  30 2.51  55 2.54   7 2.61   8 2.63
                            62 2.64  37 2.70  25 2.71  21 2.79
  20  0.708  0.789  0.218-  21 2.45  19 2.46  40 2.50  25 2.51   1 2.55  57 2.57  55 2.69  50 2.71
                            39 2.71  51 2.72  53 2.72  12 2.74
  21  0.887  0.695  0.135-  20 2.45  12 2.47  39 2.48  42 2.48   4 2.49   6 2.51  54 2.56  62 2.62
                            31 2.64  32 2.65  25 2.71  19 2.79
  22  0.620  0.454  0.134-  48 2.40  51 2.44  36 2.46  28 2.47  63 2.50  17 2.51  44 2.58   7 2.60
                            25 2.65  45 2.69  11 2.73  31 2.75
  23  0.277  0.877  0.315-  26 2.43  52 2.48   2 2.52  33 2.58  69 2.59  14 2.63  57 2.63  67 2.65
                            50 2.69  75 2.70  41 2.71  13 2.72
  24  0.269  0.885  0.046-  34 2.27  35 2.45   8 2.48  44 2.54   5 2.55  16 2.64  17 2.73  43 2.79
                            59 2.83
  25  0.629  0.700  0.128-  17 2.43  59 2.45  42 2.48  20 2.51  50 2.52  51 2.55  22 2.65   8 2.66
                            31 2.69  21 2.71  19 2.71  44 2.76
  26  0.214  0.035  0.227-  23 2.43  38 2.44  35 2.46  13 2.47   8 2.57  33 2.59  53 2.60  50 2.61
                            61 2.66  49 2.70  52 2.77  46 2.77
  27  0.536  0.368  0.317-  63 2.52  36 2.52  29 2.54  64 2.55  76 2.58  15 2.59  78 2.59  56 2.61
                            41 2.62  14 2.64  47 2.65  79 2.74
  28  0.541  0.369  0.044-  22 2.47   7 2.48  30 2.51  45 2.54  17 2.66  48 2.66  43 2.66  18 2.67
                            58 2.69
  29  0.533  0.129  0.314-  55 2.53  64 2.53  27 2.54  53 2.56  72 2.57  15 2.58  74 2.64  78 2.64
                            13 2.64  56 2.66  57 2.66   1 2.70
  30  0.534  0.136  0.044-   7 2.48  37 2.50  28 2.51  19 2.51  18 2.53  58 2.63  16 2.65  59 2.67
                             4 2.87
  31  0.883  0.447  0.138-  51 2.44  12 2.44  61 2.44  48 2.46  42 2.49  10 2.50  21 2.64  38 2.64
                            11 2.67  25 2.69  32 2.71  22 2.75
  32  0.140  0.447  0.136-  18 2.36  46 2.39  60 2.40  45 2.41  37 2.43  54 2.45  12 2.50   6 2.50
                            10 2.53  21 2.65  38 2.65  31 2.71
  33  0.036  0.125  0.318-  49 2.49  61 2.50  23 2.58  26 2.59  71 2.60  70 2.61  67 2.61  47 2.62
                             9 2.62  56 2.63  13 2.63   2 2.65
  34  0.059  0.102  0.058-  24 2.27  38 2.40  35 2.40  11 2.46  16 2.57  10 2.62   5 2.64  58 2.75
                            48 2.77
  35  0.134  0.938  0.142-  52 2.39  34 2.40  24 2.45  26 2.46  49 2.50   5 2.51  44 2.56   8 2.65
                            62 2.66  54 2.70  11 2.71  38 2.76
  36  0.459  0.525  0.223-  14 2.44  22 2.46  64 2.48  45 2.48  63 2.50  27 2.52  60 2.55  44 2.56
                            52 2.58  41 2.63  51 2.65  50 2.71
  37  0.369  0.216  0.135-  18 2.37  46 2.41  64 2.41  53 2.41  32 2.43  45 2.49  30 2.50  16 2.54
                            38 2.57   7 2.59  19 2.70   8 2.75
  38  0.135  0.199  0.139-  34 2.40  26 2.44  10 2.44  46 2.48  61 2.49  16 2.52  37 2.57   8 2.58
                            31 2.64  32 2.65  11 2.71  35 2.76
  39  0.969  0.780  0.224-  62 2.40  54 2.47   3 2.47  21 2.48   1 2.50   2 2.55  52 2.57  12 2.62
                            49 2.65  60 2.67  20 2.71  55 2.82
  40  0.786  0.620  0.308-  51 2.45  12 2.49  20 2.50  80 2.60  47 2.65   9 2.65  73 2.67  68 2.69
                             3 2.72   1 2.73  14 2.77  57 2.77
  41  0.289  0.615  0.319-  52 2.50  14 2.52  15 2.56   3 2.57  60 2.58  77 2.61  27 2.62  36 2.63
                            79 2.66   2 2.66  75 2.67  23 2.71
  42  0.814  0.604  0.046-  21 2.48  25 2.48  31 2.49   6 2.52  10 2.58  48 2.65   4 2.67  17 2.90
                            59 2.92
  43  0.283  0.614  0.042-  44 2.46  54 2.47   6 2.49  45 2.49  18 2.55   5 2.60  28 2.66  17 2.66
                            24 2.79
  44  0.371  0.692  0.130-  17 2.35  43 2.46  50 2.51  54 2.54  24 2.54  45 2.55  52 2.55  36 2.56
                            35 2.56  22 2.58  25 2.76   8 2.78
  45  0.365  0.454  0.134-  18 2.39  60 2.40  54 2.41  32 2.41  64 2.43  36 2.48  37 2.49  43 2.49
                            28 2.54  44 2.55   7 2.63  22 2.69
  46  0.217  0.296  0.224-  32 2.39  60 2.40  37 2.41  64 2.44  15 2.45  38 2.48  13 2.51  53 2.55
                            12 2.56   9 2.61  61 2.77  26 2.77
  47  0.786  0.370  0.315-  61 2.51  63 2.53  51 2.54  56 2.58  76 2.59  68 2.61  33 2.62  40 2.65
                            27 2.65  70 2.65   9 2.68  14 2.74
  48  0.796  0.362  0.053-  22 2.40  31 2.46  11 2.46  58 2.65  42 2.65  10 2.66  28 2.66  34 2.77
                            17 2.82
  49  0.958  0.036  0.229-  11 2.44   2 2.45  56 2.48  62 2.48  33 2.49  35 2.50  55 2.64  61 2.65
                            39 2.65  26 2.70  63 2.72  52 2.76
  50  0.455  0.783  0.217-   8 2.44  57 2.49  44 2.51  14 2.52  25 2.52  52 2.59  26 2.61  51 2.65
                            23 2.69  20 2.71  36 2.71  53 2.79
  51  0.706  0.532  0.221-  31 2.44  22 2.44  40 2.45  47 2.54  25 2.55  14 2.59  63 2.63  61 2.65
                            50 2.65  36 2.65  20 2.72  12 2.77
  52  0.217  0.772  0.226-  35 2.39  23 2.48  41 2.50  54 2.52  44 2.55   2 2.57  39 2.57  36 2.58
                            50 2.59  60 2.62  49 2.76  26 2.77
  53  0.453  0.049  0.219-  37 2.41  57 2.45  19 2.49   8 2.49  46 2.55  29 2.56  64 2.59  26 2.60
                            55 2.63  13 2.63  20 2.72  50 2.79
[...]
      8.93973      7.16294      4.78303        -0.062578     -0.011076      0.169055
     10.26831      4.86773      4.86168        -0.222374      0.076362     -0.072280
      6.36134      7.05694      4.98288        -0.557909     -0.690413     -0.399645
      5.03568      0.44406      4.82448        -0.194114      0.217301     -0.207457
      5.03837      6.22927      2.99978         0.082364      0.415579      0.687643
      7.66281      0.42376      4.91528        -0.161157     -0.080565     -0.029064
      8.97183      1.14271      6.96918        -0.019930     -0.071883     -0.050899
     10.18758      8.06920      6.73958        -0.016184     -0.212564      0.169847
      8.97334      1.03372      1.11512        -0.025248      0.108661      0.167760
     10.33791      8.05446      1.01655         0.155584     -0.118845     -0.238334
      5.06255      4.78269      4.92165        -0.112142      1.368066      0.531650
[...]
      6.30357      8.77631      9.13605        -0.074861     -0.044270      0.006362
     11.57861      4.20024      9.01638         0.030446      0.033264      0.004072
      8.94451      8.75416      9.00000         0.065355     -0.073913     -0.033554
     10.25998      1.89992      9.11489         0.000629      0.043778      0.053981
      2.34511      1.90267      9.11538         0.001602      0.043234      0.022002
     11.57867      8.74628      8.94161         0.000990      0.056338     -0.025156
     12.89877      6.46800      8.95427         0.040670     -0.012874      0.006879
      4.99194      1.89250      9.08841        -0.005438      0.032205     -0.040317
      7.63763      6.49468      9.16491        -0.003012     -0.026667     -0.036507
      8.96215      4.18017      9.01659         0.028438     -0.030563      0.005815
      4.95800      6.47337      9.10187         0.016841      0.068939      0.053856
      7.62472      1.87453      9.09916         0.016826     -0.020214      0.091955
      6.29020      4.14641      9.24372        -0.009425     -0.037555     -0.030891
     10.26137      6.48331      8.85905        -0.047706     -0.006548      0.059838
      6.94254      5.37676     10.30650         0.007624      0.025171      0.082414
    total drift:                                0.002588     -0.009203      0.001183

  FREE ENERGIE OF THE ION-ELECTRON SYSTEM (eV)
  free  energy   TOTEN  =      -622.13821175 eV

  energy  without entropy=     -622.13821175  energy(sigma->0) =     -622.13821175

 d Force = 0.6366237E-03[-0.247E-02, 0.375E-02]  d Energy = 0.3332370E-03 0.303E-03
 d Force =-0.9796150E+01[-0.981E+01,-0.979E+01]  d Ewald  =-0.9796344E+01 0.194E-03

 Finite differences progress:
  Degree of freedom:   3/  3
  Displacement:        2/  2
  Total:               6/  6

 SECOND DERIVATIVES (NOT SYMMETRIZED)
              81X         81Y         81Z
 81X    -0.946349   -1.423378    0.260992
 81Y    -1.449956   -2.583678   -0.022880
 81Z     0.256261   -0.007608   -6.908969

 Eigenvectors and eigenvalues of the dynamical matrix

   1 f  =   41.126928 THz   258.408110 2PiTHz 1371.846612 cm-1   170.087364 meV
             X         Y         Z           dx          dy          dz
     12.973096  8.013780  6.818089            0           0           0
      5.037205  7.974645  6.983895            0           0           0
      3.727940  5.677676  6.930352            0           0           0
     13.024706  7.879042  1.000763            0           0           0
      4.976621  7.880468  1.168907            0           0           0
      3.738868  5.544192  0.956012            0           0           0
      7.628890  1.910811  2.979252            0           0           0
      9.009114  8.706763  2.893340            0           0           0
      2.370094  3.400001  6.954861            0           0           0
      2.407761  3.231138  1.075231            0           0           0
     10.326193  1.796539  3.091534            0           0           0
     13.035658  4.857971  4.926371            0           0           0
      3.671382  1.214355  6.940035            0           0           0
      8.808011  5.709831  6.833874            0           0           0
      5.014273  3.408477  6.972009            0           0           0
      3.706944  1.128718  0.971383            0           0           0
      8.883744  5.736281  0.991643            0           0           0
      5.000854  3.374065  1.054465            0           0           0
     11.642972  8.769642  2.889780            0           0           0
     11.645477  7.212219  4.799477            0           0           0
     13.039679  6.359002  2.970796            0           0           0
      8.943817  4.150168  2.941119            0           0           0
      7.560303  8.020322  6.932985            0           0           0
      7.508804  8.090212  1.022702            0           0           0
     10.334622  6.397915  2.825376            0           0           0
      2.443978  0.318880  4.987461            0           0           0
      7.606018  3.361497  6.975602            0           0           0
      7.665170  3.377379  0.973541            0           0           0
      6.312052  1.181289  6.916274            0           0           0
      6.351712  1.239972  0.967673            0           0           0
     11.688207  4.088812  3.039482            0           0           0
      3.840675  4.087497  2.982300            0           0           0
      1.040852  1.142363  7.003238            0           0           0
      1.160695  0.931305  1.265535            0           0           0
      6.368574  8.574404  3.134353            0           0           0
      7.615287  4.802472  4.904074            0           0           0
      5.041730  1.976744  2.965189            0           0           0
      2.476130  1.815478  3.064992            0           0           0
     14.349977  7.129369  4.927827            0           0           0
     11.577648  5.671674  6.769719            0           0           0
      6.296895  5.626868  7.028358            0           0           0
     11.778942  5.519919  1.007876            0           0           0
      6.225915  5.612288  0.923499            0           0           0
      7.572476  6.328243  2.854803            0           0           0
      6.251016  4.149414  2.937634            0           0           0
      3.855511  2.705056  4.927861            0           0           0
     10.254725  3.384827  6.919833            0           0           0
     10.314544  3.314036  1.156726            0           0           0
     10.301471  0.326871  5.040546            0           0           0
      8.939729  7.162943  4.783033            0           0           0
     10.268310  4.867732  4.861681            0           0           0
      6.361336  7.056937  4.982884            0           0           0
      5.035677  0.444062  4.824483            0           0           0
      5.038367  6.229272  2.999781            0           0           0
      7.662807  0.423756  4.915281            0           0           0
      8.971828  1.142714  6.969178            0           0           0
     10.187583  8.069199  6.739576            0           0           0
      8.973338  1.033718  1.115123            0           0           0
     10.337909  8.054459  1.016552            0           0           0
      5.062545  4.782687  4.921653            0           0           0
[...]
      6.303565  8.776315  9.136049            0           0           0
     11.578606  4.200245  9.016382            0           0           0
      8.944507  8.754163  8.999997            0           0           0
     10.259982  1.899921  9.114894            0           0           0
      2.345115  1.902665  9.115379            0           0           0
     11.578675  8.746279  8.941610            0           0           0
     12.898772  6.468004  8.954274            0           0           0
      4.991944  1.892503  9.088414            0           0           0
      7.637633  6.494680  9.164914            0           0           0
      8.962154  4.180170  9.016594            0           0           0
      4.958002  6.473365  9.101865            0           0           0
      7.624723  1.874534  9.099158            0           0           0
      6.290200  4.146406  9.243720            0           0           0
     10.261370  6.483305  8.859052            0           0           0
      6.942540  5.376765 10.321502    -0.046066   -0.011749    0.998869

[...]

   3 f  =    5.031908 THz    31.616413 2PiTHz  167.846392 cm-1    20.810308 meV
             X         Y         Z           dx          dy          dz
     12.973096  8.013780  6.818089            0           0           0
      5.037205  7.974645  6.983895            0           0           0
      3.727940  5.677676  6.930352            0           0           0
     13.024706  7.879042  1.000763            0           0           0
      4.976621  7.880468  1.168907            0           0           0
      3.738868  5.544192  0.956012            0           0           0
      7.628890  1.910811  2.979252            0           0           0
      9.009114  8.706763  2.893340            0           0           0
      2.370094  3.400001  6.954861            0           0           0
      2.407761  3.231138  1.075231            0           0           0
     10.326193  1.796539  3.091534            0           0           0
     13.035658  4.857971  4.926371            0           0           0
      3.671382  1.214355  6.940035            0           0           0
      8.808011  5.709831  6.833874            0           0           0
      5.014273  3.408477  6.972009            0           0           0
      3.706944  1.128718  0.971383            0           0           0
      8.883744  5.736281  0.991643            0           0           0
      5.000854  3.374065  1.054465            0           0           0
     11.642972  8.769642  2.889780            0           0           0
     11.645477  7.212219  4.799477            0           0           0
     13.039679  6.359002  2.970796            0           0           0
      8.943817  4.150168  2.941119            0           0           0
      7.560303  8.020322  6.932985            0           0           0
      7.508804  8.090212  1.022702            0           0           0
     10.334622  6.397915  2.825376            0           0           0
      2.443978  0.318880  4.987461            0           0           0
      7.606018  3.361497  6.975602            0           0           0
      7.665170  3.377379  0.973541            0           0           0
      6.312052  1.181289  6.916274            0           0           0
      6.351712  1.239972  0.967673            0           0           0
     11.688207  4.088812  3.039482            0           0           0
      3.840675  4.087497  2.982300            0           0           0
      1.040852  1.142363  7.003238            0           0           0
      1.160695  0.931305  1.265535            0           0           0
      6.368574  8.574404  3.134353            0           0           0
      7.615287  4.802472  4.904074            0           0           0
      5.041730  1.976744  2.965189            0           0           0
      2.476130  1.815478  3.064992            0           0           0
     14.349977  7.129369  4.927827            0           0           0
     11.577648  5.671674  6.769719            0           0           0
      6.296895  5.626868  7.028358            0           0           0
     11.778942  5.519919  1.007876            0           0           0
      6.225915  5.612288  0.923499            0           0           0
      7.572476  6.328243  2.854803            0           0           0
      6.251016  4.149414  2.937634            0           0           0
      3.855511  2.705056  4.927861            0           0           0
     10.254725  3.384827  6.919833            0           0           0
     10.314544  3.314036  1.156726            0           0           0
     10.301471  0.326871  5.040546            0           0           0
      8.939729  7.162943  4.783033            0           0           0
     10.268310  4.867732  4.861681            0           0           0
      6.361336  7.056937  4.982884            0           0           0
      5.035677  0.444062  4.824483            0           0           0
      5.038367  6.229272  2.999781            0           0           0
      7.662807  0.423756  4.915281            0           0           0
      8.971828  1.142714  6.969178            0           0           0
     10.187583  8.069199  6.739576            0           0           0
      8.973338  1.033718  1.115123            0           0           0
     10.337909  8.054459  1.016552            0           0           0
      5.062545  4.782687  4.921653            0           0           0
[...]
      6.303565  8.776315  9.136049            0           0           0
     11.578606  4.200245  9.016382            0           0           0
      8.944507  8.754163  8.999997            0           0           0
     10.259982  1.899921  9.114894            0           0           0
      2.345115  1.902665  9.115379            0           0           0
     11.578675  8.746279  8.941610            0           0           0
     12.898772  6.468004  8.954274            0           0           0
      4.991944  1.892503  9.088414            0           0           0
      7.637633  6.494680  9.164914            0           0           0
      8.962154  4.180170  9.016594            0           0           0
      4.958002  6.473365  9.101865            0           0           0
      7.624723  1.874534  9.099158            0           0           0
      6.290200  4.146406  9.243720            0           0           0
     10.261370  6.483305  8.859052            0           0           0
      6.942540  5.376765 10.321502    -0.864710    0.501121   -0.033984

 Finite differences POTIM=  1.500000000000000E-002
  LATTYP: Found a hexagonal cell.
 ALAT       =    10.5600004196
 C/A-ratio  =     2.0833332505

  Lattice vectors:

 A1 = (   5.2800002098,  -9.1452286274,   0.0000000000)
 A2 = ( -10.5600004196,   0.0000000000,   0.0000000000)
 A3 = (   0.0000000000,   0.0000000000, -22.0000000000)

Analysis of symmetry for initial positions (statically):
 Subroutine PRICEL returns:
 Original cell was already a primitive cell.

[...]

The static configuration has the point symmetry C_1 .

Analysis of symmetry for dynamics (positions and initial velocities):
 Subroutine PRICEL returns:
 Original cell was already a primitive cell.

[...]

The dynamic configuration has the point symmetry C_1 .

Analysis of constrained symmetry for selective dynamics:
 Subroutine PRICEL returns:
 Original cell was already a primitive cell.

[...]

The constrained configuration has the point symmetry C_1 .

Analysis of structural, dynamic, and magnetic symmetry:
 Subroutine PRICEL returns:
 Original cell was already a primitive cell.

 Routine SETGRP: Setting up the symmetry group for a
 hexagonal supercell.

 Subroutine GETGRP returns: Found  1 space group operations
 (whereof  1 operations were pure point group operations)
 out of a pool of 24 trial point group operations.

The magnetic configuration has the point symmetry C_1 .

 Subroutine INISYM returns: Found  1 space group operations
 (whereof  1 operations are pure point group operations),
 and found     1 'primitive' translations

 KPOINTS: mesh auto

Automatic generation of k-mesh.
Space group operators:
 irot       det(A)        alpha          n_x          n_y          n_z        tau_x        tau_y        tau_z
    1     1.000000     0.000001     1.000000     0.000000     0.000000     0.000000     0.000000     0.000000

 Subroutine IBZKPT returns following result:

 Found      4 irreducible k-points:

 Following reciprocal coordinates:
            Coordinates               Weight
  0.000000  0.000000  0.000000      1.000000
  0.500000  0.000000  0.000000      1.000000
  0.000000  0.500000  0.000000      1.000000
  0.500000  0.500000  0.000000      1.000000

 Following cartesian coordinates:
            Coordinates               Weight
  0.000000  0.000000  0.000000      1.000000
  0.047348 -0.027337  0.000000      1.000000
  0.000000  0.054673  0.000000      1.000000
  0.047348  0.027337  0.000000      1.000000

 TETIRR: Found     12 inequivalent tetrahedra from       24
 BZINTS: Fermi energy:  0.853307;673.000000 electrons
         Band energy:***********;  BLOECHL correction: -0.035160