 vasp.5.4.4.18Apr17-6-g9f103f2a35 (build Nov 30 2020 22:55:02) complex

 executed on             LinuxIFC date 2023.07.29  23:16:57

 INCAR:
 POTCAR:    PAW_PBE Pt 04Feb2005
 POTCAR:    PAW_PBE Cu 22Jun2005
 POTCAR:    PAW_PBE Ni 02Aug2007
 POTCAR:    PAW_PBE Fe 06Sep2000
 POTCAR:    PAW_PBE Co 02Aug2007
 POTCAR:    PAW_PBE H 15Jun2001
 POTCAR:    PAW_PBE Pt 04Feb2005
   VRHFIN =Pt: s1d9

   TITEL  = PAW_PBE Pt 04Feb2005
   POMASS =  195.080; ZVAL   =   10.000    mass and valenz
   ENMAX  =  230.283; ENMIN  =  172.712 eV

 POTCAR:    PAW_PBE Cu 22Jun2005
   VRHFIN =Cu: d10 p1

   TITEL  = PAW_PBE Cu 22Jun2005
   POMASS =   63.546; ZVAL   =   11.000    mass and valenz
   ENMAX  =  295.446; ENMIN  =  221.585 eV

 POTCAR:    PAW_PBE Ni 02Aug2007
   VRHFIN =Ni:

   TITEL  = PAW_PBE Ni 02Aug2007
   POMASS =   58.690; ZVAL   =   10.000    mass and valenz
   ENMAX  =  269.532; ENMIN  =  202.149 eV

 POTCAR:    PAW_PBE Fe 06Sep2000
   VRHFIN =Fe:  d7 s1

   TITEL  = PAW_PBE Fe 06Sep2000
   POMASS =   55.847; ZVAL   =    8.000    mass and valenz
   ENMAX  =  267.882; ENMIN  =  200.911 eV

 POTCAR:    PAW_PBE Co 02Aug2007
   VRHFIN =Co: d8 s1

   TITEL  = PAW_PBE Co 02Aug2007
   POMASS =   58.933; ZVAL   =    9.000    mass and valenz
   ENMAX  =  267.968; ENMIN  =  200.976 eV

 POTCAR:    PAW_PBE H 15Jun2001
   VRHFIN =H: ultrasoft test

   TITEL  = PAW_PBE H 15Jun2001
   POMASS =    1.000; ZVAL   =    1.000    mass and valenz
   ENMAX  =  250.000; ENMIN  =  200.000 eV

 Optimization of the real space projectors (new method)

 maximal supplied QI-value         = 14.36
 optimisation between [QCUT,QGAM] = [ 11.92, 23.98] = [ 39.79,161.09] Ry
 Optimized for a Real-space Cutoff    1.49 Angstroem

   l    n(q)    QCUT    max X(q) W(low)/X(q) W(high)/X(q)  e(spline)
   2     10    11.920    66.195    0.79E-04    0.18E-03    0.24E-06
   2     10    11.920    64.643    0.81E-04    0.19E-03    0.24E-06
   0     11    11.920    95.520    0.28E-04    0.54E-04    0.18E-06
   0     11    11.920    63.403    0.27E-04    0.52E-04    0.17E-06
   1     10    11.920    19.961    0.18E-04    0.11E-03    0.23E-06
   1     10    11.920    13.289    0.25E-04    0.87E-04    0.19E-06
 Optimization of the real space projectors (new method)

[...]

   l    n(q)    QCUT    max X(q) W(low)/X(q) W(high)/X(q)  e(spline)
   2      9    11.864    65.824    0.22E-03    0.53E-03    0.26E-06
   2      9    11.864    61.429    0.22E-03    0.53E-03    0.26E-06
   0      9    11.864    56.174    0.21E-03    0.32E-04    0.15E-06
   0      9    11.864    31.263    0.19E-03    0.30E-04    0.14E-06
   1      9    11.864    19.828    0.63E-04    0.30E-03    0.16E-06
   1      9    11.864    15.139    0.49E-04    0.25E-03    0.13E-06
 Optimization of the real space projectors (new method)

 maximal supplied QI-value         = 34.20
 optimisation between [QCUT,QGAM] = [ 11.97, 23.94] = [ 40.13,160.53] Ry
 Optimized for a Real-space Cutoff    1.18 Angstroem

   l    n(q)    QCUT    max X(q) W(low)/X(q) W(high)/X(q)  e(spline)
   0      8    11.971    19.460    0.15E-03    0.31E-03    0.25E-06
   0      8    11.971    12.209    0.13E-03    0.29E-03    0.25E-06
   1      8    11.971     4.655    0.22E-03    0.24E-03    0.21E-06
  PAW_PBE Pt 04Feb2005                  :
  PAW_PBE Cu 22Jun2005                  :
  PAW_PBE Ni 02Aug2007                  :
  PAW_PBE Fe 06Sep2000                  :
  PAW_PBE Co 02Aug2007                  :
  PAW_PBE H 15Jun2001                   :

 POSCAR: 10.56
  positions in direct lattice
  velocities in cartesian coordinates
 exchange correlation table for  LEXCH =        8
   RHO(1)=    0.500       N(1)  =     2000
   RHO(2)=  100.500       N(2)  =     4000

 ion  position               nearest neighbor table
   1  0.790  0.877  0.316-  49 2.55  59 2.56  19 2.63  33 2.66  61 2.67  60 2.67  29 2.68  28 2.69
                             2 2.71   4 2.81  11 2.84  12 2.86
   2  0.044  0.882  0.316-  79 2.55  77 2.56  60 2.62  30 2.64  22 2.65  28 2.66  52 2.68   1 2.71
                            33 2.74   6 2.78   4 2.86  16 2.90
   3  0.287  0.379  0.320-  64 2.57  39 2.60  33 2.60  68 2.64  31 2.65  19 2.68  43 2.69  30 2.71
                            18 2.78   5 2.79  25 2.82  13 2.82
   4  0.869  0.962  0.424-  17 2.61  11 2.62  12 2.66  60 2.68   9 2.68  16 2.72   6 2.76   1 2.81
                             2 2.86
   5  0.124  0.459  0.427-  10 2.60  16 2.61   7 2.62  12 2.63  13 2.63  25 2.67  39 2.78  33 2.79
                             3 2.79
   6  0.129  0.964  0.421-   8 2.59  10 2.60  14 2.66   9 2.68  16 2.75   4 2.76   2 2.78  52 2.80
                            22 2.85
   7  0.875  0.460  0.423-   9 2.61  12 2.61   5 2.62  10 2.63  15 2.63  27 2.67  39 2.70  29 2.74
                            75 2.77
   8  0.377  0.960  0.419-   6 2.59  11 2.60  27 2.61  14 2.64  43 2.64  13 2.64  10 2.66  61 2.67
                            52 2.70
   9  0.873  0.214  0.422-   7 2.61  15 2.61  17 2.64  60 2.65  10 2.65   6 2.68  75 2.68   4 2.68
                            22 2.83
  10  0.125  0.212  0.423-   6 2.60   5 2.60  13 2.62   7 2.63   9 2.65   8 2.66  39 2.73  43 2.74
                            22 2.84
  11  0.622  0.961  0.424-   8 2.60   4 2.62  27 2.62  13 2.63  17 2.66  12 2.66  61 2.81  19 2.83
                             1 2.84
  12  0.874  0.708  0.425-   7 2.61   5 2.63  27 2.63  16 2.66   4 2.66  11 2.66  33 2.75  29 2.81
                             1 2.86
  13  0.374  0.210  0.428-  10 2.62  11 2.63   5 2.63   8 2.64  17 2.65  25 2.65   3 2.82  43 2.84
                            19 2.90
  14  0.378  0.710  0.426-  81 1.71  27 2.60  15 2.62   8 2.64  25 2.64   6 2.66  16 2.67  44 2.74
                            30 2.79  52 2.86
  15  0.625  0.461  0.424-   9 2.61  14 2.62   7 2.63  27 2.64  25 2.64  17 2.65  44 2.74  18 2.77
                            75 2.80
  16  0.127  0.705  0.425-  81 1.73  25 2.60   5 2.61  12 2.66  14 2.67   4 2.72   6 2.75  33 2.75
                            30 2.79   2 2.90
  17  0.624  0.211  0.425-   4 2.61  25 2.63   9 2.64  15 2.65  13 2.65  11 2.66  60 2.73  18 2.77
                            19 2.90
  18  0.554  0.371  0.318-  67 2.54  75 2.55  60 2.56  68 2.60  26 2.67  44 2.68  19 2.72  30 2.75
                            15 2.77  17 2.77   3 2.78  25 2.90
  19  0.537  0.122  0.315-  59 2.54  68 2.54  80 2.54  43 2.60  61 2.61   1 2.63   3 2.68  18 2.72
                            60 2.75  11 2.83  13 2.90  17 2.90
  20  0.547  0.122  0.038-  57 2.54  37 2.59  48 2.60  62 2.60  47 2.60  34 2.65  45 2.68  63 2.71
                            56 2.75
  21  0.124  0.462  0.127-  36 2.55  47 2.57  40 2.58  58 2.61  42 2.61  64 2.63  31 2.66  69 2.66
                            50 2.67  74 2.69  70 2.69  57 2.69
  22  0.040  0.135  0.313-  65 2.46  75 2.54  55 2.54  77 2.58  39 2.59  43 2.59  60 2.65   2 2.65
                            52 2.74   9 2.83  10 2.84   6 2.85
  23  0.032  0.135  0.034-  70 2.57  62 2.59  40 2.59  41 2.60  76 2.63  45 2.70  24 2.70  35 2.71
                            53 2.86
  24  0.127  0.955  0.132-  79 2.52  55 2.55  53 2.61  35 2.62  77 2.62  58 2.62  73 2.64  70 2.65
                            38 2.67  66 2.68  23 2.70  41 2.74
  25  0.376  0.461  0.427-  81 1.75  16 2.60  17 2.63  15 2.64  14 2.64  13 2.65   5 2.67   3 2.82
                            30 2.84  18 2.90
  26  0.458  0.546  0.220-  73 2.50  74 2.51  51 2.53  79 2.60  64 2.61  30 2.65  68 2.66  18 2.67
                            32 2.69  44 2.71  78 2.71  67 2.74
  27  0.623  0.712  0.424-  14 2.60   8 2.61  11 2.62  12 2.63  15 2.64   7 2.67  44 2.71  61 2.76
                            29 2.77
  28  0.964  0.793  0.218-  66 2.54  50 2.56  58 2.58  77 2.63  42 2.64  64 2.65   2 2.66  79 2.68
                             1 2.69  59 2.70  33 2.74  49 2.75
  29  0.789  0.624  0.319-  44 2.59  42 2.59  32 2.61  39 2.61  75 2.64  61 2.65  49 2.65  33 2.66
                             1 2.68   7 2.74  27 2.77  12 2.81
  30  0.293  0.632  0.319-  79 2.56  44 2.60  64 2.61  52 2.62   2 2.64  26 2.65  33 2.71   3 2.71
                            18 2.75  14 2.79  16 2.79  25 2.84
  31  0.211  0.284  0.223-  57 2.55  70 2.55  65 2.59  55 2.61  43 2.61  80 2.64   3 2.65  21 2.66
                            68 2.67  39 2.67  42 2.71  64 2.72
  32  0.717  0.537  0.221-  69 2.51  54 2.56  51 2.57  65 2.60  29 2.61  42 2.61  75 2.64  67 2.64
                            49 2.68  26 2.69  44 2.75  78 2.78
  33  0.040  0.625  0.321-  42 2.58  39 2.59   3 2.60  64 2.65   1 2.66  29 2.66  30 2.71   2 2.74
                            28 2.74  12 2.75  16 2.75   5 2.79
  34  0.797  0.870  0.037-  50 2.48  66 2.50  36 2.54  48 2.61  35 2.62  63 2.64  71 2.65  20 2.65
                            62 2.72
  35  0.044  0.872  0.035-  58 2.56  36 2.57  66 2.61  24 2.62  34 2.62  72 2.70  23 2.71  62 2.72
                            53 2.74
  36  0.039  0.631  0.035-  58 2.54  34 2.54  21 2.55  35 2.57  50 2.59  40 2.68  71 2.72  72 2.76
                            47 2.78
  37  0.626  0.214  0.133-  68 2.52  59 2.52  67 2.52  41 2.56  51 2.57  56 2.58  66 2.59  20 2.59
                            74 2.60  62 2.60  57 2.64  48 2.76
  38  0.376  0.961  0.131-  80 2.47  53 2.51  55 2.53  78 2.53  63 2.53  45 2.55  54 2.58  48 2.61
                            57 2.62  24 2.67  70 2.69  73 2.69
  39  0.040  0.380  0.321-  22 2.59  33 2.59   3 2.60  42 2.60  29 2.61  75 2.63  65 2.67  31 2.67
                            43 2.70   7 2.70  10 2.73   5 2.78
  40  0.040  0.377  0.033-  69 2.55  21 2.58  23 2.59  76 2.61  70 2.61  45 2.66  71 2.67  36 2.68
                            47 2.81
  41  0.868  0.215  0.131-  67 2.47  65 2.53  76 2.53  77 2.53  37 2.56  51 2.56  62 2.57  69 2.59
                            23 2.60  70 2.61  66 2.63  24 2.74
  42  0.960  0.545  0.225-  33 2.58  29 2.59  39 2.60  50 2.61  32 2.61  21 2.61  28 2.64  64 2.65
                            69 2.68  65 2.69  49 2.70  31 2.71
  43  0.292  0.121  0.320-  52 2.54  55 2.58  22 2.59  19 2.60  61 2.60  31 2.61   8 2.64  80 2.66
                             3 2.69  39 2.70  10 2.74  13 2.84
  44  0.540  0.632  0.321-  61 2.56  52 2.56  29 2.59  30 2.60  78 2.63  18 2.68  26 2.71  27 2.71
                            75 2.73  14 2.74  15 2.74  32 2.75
  45  0.292  0.126  0.037-  38 2.55  57 2.57  70 2.59  40 2.66  53 2.66  20 2.68  23 2.70  47 2.70
                            63 2.74
  46  0.545  0.626  0.042-  73 2.43  51 2.44  54 2.47  71 2.53  53 2.54  76 2.54  63 2.55  72 2.56
                            56 2.56
  47  0.307  0.374  0.039-  74 2.45  57 2.52  56 2.54  21 2.57  20 2.60  72 2.62  45 2.70  36 2.78
                            40 2.81
  48  0.628  0.952  0.133-  49 2.43  80 2.48  59 2.50  63 2.52  50 2.54  54 2.54  20 2.60  34 2.61
                            66 2.61  38 2.61  57 2.66  37 2.76
  49  0.701  0.798  0.223-  48 2.43  54 2.51  80 2.51   1 2.55  78 2.56  50 2.57  61 2.58  59 2.60
                            29 2.65  32 2.68  42 2.70  28 2.75
  50  0.866  0.710  0.128-  71 2.42  34 2.48  48 2.54  28 2.56  49 2.57  54 2.58  36 2.59  42 2.61
[...]
   -.115E+03 0.300E+01 -.145E+04   0.115E+03 -.281E+01 0.145E+04   0.147E+00 -.220E+00 0.283E+01   0.618E-02 0.880E-02 0.373E-01
   0.970E+01 -.196E+02 -.287E+04   -.972E+01 0.198E+02 0.286E+04   0.110E-01 -.188E+00 0.109E+01   0.985E-02 -.128E-03 -.358E-01
   -.270E+02 -.397E+01 -.294E+04   0.267E+02 0.371E+01 0.294E+04   0.298E+00 0.289E+00 0.107E+01   -.706E-02 0.101E-01 0.838E-03
   0.369E+02 -.360E+01 -.287E+04   -.368E+02 0.382E+01 0.287E+04   -.104E+00 -.240E+00 0.987E+00   -.200E-01 -.239E-01 -.346E-01
   0.294E+02 0.191E+01 -.293E+04   -.295E+02 -.207E+01 0.293E+04   -.366E-02 0.969E-01 0.111E+01   0.278E-01 -.377E-02 0.322E-01
   -.205E+02 0.349E+01 -.289E+04   0.205E+02 -.373E+01 0.289E+04   0.314E-02 0.285E+00 0.164E+01   -.100E-02 -.272E-01 -.140E-01
   0.246E+02 0.253E+02 -.288E+04   -.249E+02 -.250E+02 0.288E+04   0.286E+00 -.277E+00 0.161E+01   -.318E-01 -.358E-01 0.190E-02
   0.256E+02 0.165E+02 -.294E+04   -.255E+02 -.165E+02 0.294E+04   -.714E-01 0.250E-01 0.716E+00   -.494E-02 0.841E-02 0.552E-02
   -.285E+02 -.118E+02 -.288E+04   0.282E+02 0.118E+02 0.288E+04   0.239E+00 -.750E-01 0.907E+00   -.427E-02 -.256E-02 0.231E-01
   0.104E+02 -.467E+02 -.291E+04   -.102E+02 0.465E+02 0.291E+04   -.116E+00 0.271E+00 0.859E+00   0.322E-01 0.168E-01 -.123E-02
   -.470E+02 0.743E+01 -.292E+04   0.470E+02 -.734E+01 0.292E+04   0.349E-01 -.123E+00 0.676E+00   0.838E-02 0.260E-02 -.795E-02
   0.958E+01 -.380E+01 -.293E+04   -.873E+01 0.416E+01 0.293E+04   -.817E+00 -.378E+00 0.579E+00   -.337E-01 0.115E-01 -.112E+00
   0.179E+02 0.338E+02 -.289E+04   -.174E+02 -.340E+02 0.289E+04   -.445E+00 0.206E+00 0.116E+01   -.416E-01 0.259E-02 0.550E-02
   0.658E+01 -.312E+02 -.290E+04   -.728E+01 0.315E+02 0.290E+04   0.680E+00 -.321E+00 0.290E+00   0.143E-01 0.115E-01 -.912E-01
   0.934E+00 0.155E+02 -.286E+04   -.680E+00 -.156E+02 0.286E+04   -.292E+00 0.628E-01 0.124E+01   0.106E-01 0.105E-01 -.889E-02
   0.507E+02 0.455E+02 -.142E+04   -.489E+02 -.465E+02 0.142E+04   -.167E+01 0.101E+01 0.266E+01   -.266E-01 0.406E-02 0.436E-01
   -.902E+02 -.392E+02 -.141E+04   0.899E+02 0.382E+02 0.141E+04   0.266E+00 0.959E+00 0.364E+01   0.758E-02 0.543E-02 0.561E-01
   -.227E+02 -.238E+02 0.300E+04   0.228E+02 0.242E+02 -.300E+04   -.163E-01 -.288E+00 -.198E+01   -.450E-02 -.920E-02 0.164E-02
   -.731E+02 0.224E+02 0.148E+04   0.737E+02 -.220E+02 -.148E+04   -.569E+00 -.334E+00 -.739E-01   -.110E-01 0.122E-02 0.259E-01
   0.998E+02 0.263E+02 -.140E+04   -.100E+03 -.251E+02 0.139E+04   0.602E+00 -.111E+01 0.326E+01   -.126E-01 -.559E-01 0.349E-01
   0.348E+02 0.500E+02 0.303E+04   -.355E+02 -.489E+02 -.303E+04   0.672E+00 -.115E+01 -.216E+01   0.928E-02 -.177E-01 0.743E-02
   0.905E+02 0.331E+01 0.147E+04   -.907E+02 -.455E+01 -.147E+04   0.776E-01 0.125E+01 -.115E+01   -.123E-01 -.105E-01 0.103E+00
   -.172E+02 0.355E+02 -.288E+04   0.170E+02 -.362E+02 0.288E+04   0.188E+00 0.725E+00 0.205E+00   0.155E-01 0.249E-01 -.448E-01
   0.555E+02 0.608E+02 0.211E+02   -.565E+02 -.609E+02 -.230E+02   0.998E+00 0.239E-01 0.182E+01   -.313E-01 0.495E-01 0.781E-01
   -.286E+02 -.154E+02 -.292E+04   0.283E+02 0.156E+02 0.292E+04   0.320E+00 -.239E+00 0.119E+01   -.182E-01 0.448E-01 0.676E-02
   -.679E+02 -.391E+02 0.116E+03   0.683E+02 0.390E+02 -.117E+03   -.353E+00 -.823E-01 0.176E+01   0.570E-01 0.271E-01 0.586E-01
   0.163E+02 -.404E+02 -.149E+04   -.167E+02 0.404E+02 0.149E+04   0.412E+00 -.283E-02 0.238E+01   0.925E-02 0.346E-01 0.361E-01
   0.377E+02 0.552E+02 -.147E+04   -.377E+02 -.544E+02 0.147E+04   0.247E-01 -.746E+00 0.291E+01   -.108E-01 0.550E-01 -.161E-01
   -.803E+02 -.494E+02 0.788E+02   0.804E+02 0.486E+02 -.799E+02   -.116E+00 0.725E+00 0.115E+01   -.113E-01 -.128E-01 0.487E-01
   0.488E+02 0.534E+02 0.132E+02   -.480E+02 -.545E+02 -.140E+02   -.822E+00 0.104E+01 0.840E+00   -.899E-03 0.105E-01 0.331E-01
   -.776E+02 -.731E+02 -.163E+04   0.776E+02 0.727E+02 0.163E+04   -.441E-01 0.459E+00 0.103E+01   0.317E-01 0.320E-01 0.468E-01
   0.101E+02 -.907E+02 0.332E+04   -.105E+02 0.907E+02 -.332E+04   0.299E+00 0.267E-01 -.234E+01   -.132E-01 -.194E-01 0.420E-02
   -.331E+02 -.507E+02 0.329E+04   0.325E+02 0.503E+02 -.328E+04   0.678E+00 0.450E+00 -.294E+01   -.159E-01 0.108E-01 0.130E-01
   -.548E+02 0.439E+02 0.331E+04   0.550E+02 -.436E+02 -.331E+04   -.177E+00 -.337E+00 -.358E+01   -.377E-01 0.316E-02 -.151E-03
   0.515E+02 0.282E+02 0.158E+04   -.515E+02 -.282E+02 -.158E+04   -.815E-01 -.103E-04 -.137E+01   -.109E-02 -.163E-01 0.316E-01
   0.223E+02 -.662E+02 0.168E+04   -.217E+02 0.659E+02 -.167E+04   -.633E+00 0.154E+00 -.924E+00   -.170E-01 0.109E-01 0.517E-01
   0.130E+02 0.193E+02 -.162E+04   -.134E+02 -.197E+02 0.162E+04   0.416E+00 0.325E+00 0.121E+01   0.217E-01 -.109E-01 0.425E-01
   -.319E+02 0.380E+01 0.335E+04   0.303E+02 -.414E+01 -.335E+04   0.153E+01 0.348E+00 -.322E+01   0.103E-01 0.246E-01 0.302E-02
   0.348E+01 0.816E+02 0.162E+04   -.379E+01 -.813E+02 -.162E+04   0.344E+00 -.401E+00 -.110E+01   0.105E-01 -.414E-01 0.689E-01
   -.599E+02 0.183E+02 0.394E+02   0.596E+02 -.180E+02 -.396E+02   0.209E+00 -.325E+00 -.852E-02   0.652E-02 0.595E-02 0.416E-01
   -.703E+02 -.392E+02 -.163E+04   0.701E+02 0.385E+02 0.163E+04   0.215E+00 0.799E+00 0.177E+01   -.183E-01 -.256E-01 0.317E-01
   0.173E+02 0.721E+02 -.163E+04   -.173E+02 -.712E+02 0.163E+04   0.188E-01 -.102E+01 0.945E+00   -.527E-01 0.407E-01 0.382E-01
   -.373E+02 -.246E+01 0.331E+04   0.377E+02 0.199E+01 -.330E+04   -.437E+00 0.459E+00 -.276E+01   0.761E-02 0.857E-03 0.387E-02
   0.207E+02 0.216E+02 0.304E+04   -.206E+02 -.215E+02 -.304E+04   -.129E+00 -.135E+00 -.617E+00   0.336E-01 0.162E-01 -.614E-02
   -.198E+02 0.569E+01 0.297E+04   0.214E+02 -.579E+01 -.297E+04   -.167E+01 0.119E+00 -.216E+01   -.873E-02 -.115E-01 0.426E-02
   -.665E+02 -.115E+03 0.148E+04   0.665E+02 0.115E+03 -.148E+04   -.932E-01 0.529E+00 -.932E+00   0.763E-02 -.406E-02 0.174E-01
   -.660E+02 -.168E+02 -.520E+02   0.653E+02 0.174E+02 0.512E+02   0.780E+00 -.662E+00 0.634E+00   0.634E-02 -.586E-03 0.491E-01
   -.111E+03 -.152E+00 0.148E+04   0.111E+03 0.545E+00 -.148E+04   0.561E-01 -.418E+00 -.450E+00   -.511E-02 -.362E-02 0.878E-02
   0.426E+02 0.329E+02 0.148E+04   -.425E+02 -.325E+02 -.148E+04   -.733E-01 -.372E+00 0.635E-01   -.323E-02 0.296E-02 0.535E-01
   0.756E+02 0.245E+02 -.148E+04   -.753E+02 -.247E+02 0.148E+04   -.396E+00 0.296E+00 0.163E+01   -.480E-01 -.196E-01 0.111E-01
   0.458E+02 -.349E+02 0.303E+04   -.451E+02 0.337E+02 -.303E+04   -.848E+00 0.128E+01 -.197E+01   0.394E-02 0.219E-01 0.530E-02
   0.179E+02 0.361E+02 0.146E+04   -.175E+02 -.359E+02 -.146E+04   -.437E+00 -.155E+00 -.365E+00   0.243E-01 -.565E-03 0.165E-01
   0.812E+02 -.481E+02 0.410E+02   -.809E+02 0.478E+02 -.409E+02   -.167E+00 0.332E+00 -.158E+00   -.476E-01 -.510E-01 0.605E-01
   0.875E+01 0.563E+02 0.244E+04   -.842E+01 -.558E+02 -.244E+04   -.325E+00 -.532E+00 -.282E+01   -.154E-01 -.126E-01 -.126E-03
   -.196E+02 -.504E+02 0.116E+04   0.197E+02 0.508E+02 -.116E+04   -.809E-01 -.345E+00 -.770E+00   -.554E-02 -.259E-02 0.187E-01
   0.212E+02 -.150E+02 0.117E+04   -.209E+02 0.147E+02 -.117E+04   -.394E+00 0.334E+00 -.791E+00   -.172E-03 0.255E-01 0.610E-01
   -.533E+02 -.456E+02 -.206E+02   0.534E+02 0.461E+02 0.201E+02   -.168E+00 -.525E+00 0.296E+00   0.306E-01 -.833E-02 0.448E-01
   0.424E+02 0.148E+02 -.118E+04   -.422E+02 -.145E+02 0.118E+04   -.247E+00 -.240E+00 0.119E+01   0.110E-01 -.343E-01 0.294E-01
[...]
   -.433E+01 -.151E+02 -.698E+01   0.450E+01 0.146E+02 0.654E+01   -.146E+00 0.501E+00 0.386E+00   0.540E-03 0.648E-02 0.461E-01
   -.407E+02 0.290E+02 0.135E+04   0.406E+02 -.290E+02 -.135E+04   0.288E-01 -.143E-01 -.111E+00   0.190E-01 0.206E-01 0.256E-01
   -.236E+02 -.731E+01 0.134E+04   0.238E+02 0.788E+01 -.134E+04   -.243E+00 -.569E+00 -.947E+00   -.838E-03 -.120E-01 0.421E-01
   -.670E+01 -.904E+00 0.272E+04   0.553E+01 0.135E+01 -.272E+04   0.111E+01 -.450E+00 -.235E+01   0.215E-01 0.180E-01 -.213E-02
   0.348E+02 0.198E+02 0.270E+04   -.339E+02 -.201E+02 -.269E+04   -.804E+00 0.327E+00 -.273E+01   -.125E-01 -.347E-02 0.135E-02
   0.718E+02 0.280E+01 0.132E+04   -.721E+02 -.301E+01 -.132E+04   0.268E+00 0.240E+00 -.471E-02   -.213E-01 0.234E-01 0.826E-01
   0.639E+02 0.287E+02 0.130E+04   -.641E+02 -.286E+02 -.130E+04   0.230E+00 -.109E+00 -.120E+00   -.617E-02 -.298E-02 0.398E-01
   0.530E+02 0.301E+02 -.129E+04   -.533E+02 -.306E+02 0.129E+04   0.319E+00 0.511E+00 0.112E+01   -.128E-01 -.289E-01 0.325E-01
   0.499E+02 0.557E+02 0.274E+04   -.506E+02 -.552E+02 -.274E+04   0.654E+00 -.573E+00 -.180E+01   0.209E-01 0.188E-01 0.638E-02
   0.474E+02 0.309E+02 -.195E+01   -.479E+02 -.303E+02 0.184E+01   0.571E+00 -.611E+00 -.234E-02   0.253E-01 -.466E-01 0.587E-01
   0.239E+02 0.751E+02 -.152E+02   -.238E+02 -.742E+02 0.154E+02   -.740E-01 -.103E+01 -.424E+00   -.587E-01 0.123E-01 0.668E-01
   0.101E+03 0.474E+02 0.286E+02   -.101E+03 -.472E+02 -.289E+02   -.560E+00 -.300E+00 0.155E+00   -.689E-02 0.237E-01 0.780E-01
   -.757E+02 -.106E+03 0.124E+02   0.761E+02 0.106E+03 -.127E+02   -.427E+00 0.354E+00 0.160E+00   -.206E-01 -.425E-02 0.473E-01
   -.398E+00 -.823E+00 -.346E+03   0.429E+00 0.853E+00 0.348E+03   -.250E-01 -.427E-01 -.168E+01   -.498E-03 -.124E-03 -.593E-02
   0.221E+00 -.432E+00 -.503E+01   0.123E-12 0.213E-12 0.853E-11   -.915E-01 0.339E+00 0.319E+01   -.101E+00 0.662E-01 0.184E+01

 POSITION                                       TOTAL-FORCE (eV/Angst)
     12.97455      8.02055      6.94790        -0.006342      0.003682      0.019010
      5.12446      8.06077      6.95879         0.010633     -0.004976     -0.017491
      5.03467      3.46560      7.04361        -0.004620     -0.009766     -0.001367
     14.31383      8.77781      9.32703         0.005056     -0.014862      0.006855
      3.73246      4.19281      9.37278        -0.022962     -0.008778      0.009224
      6.41512      8.80190      9.27387        -0.016736     -0.004842     -0.007245
     11.67952      4.20085      9.30802         0.017427     -0.015278     -0.012028
      9.03566      8.77766      9.21420         0.023282     -0.029682      0.006453
     10.35615      1.92943      9.28602         0.006653     -0.004562      0.004663
      2.44490      1.91732      9.30780        -0.003004      0.005051     -0.002464
     11.65894      8.77700      9.33689        -0.003674     -0.025818     -0.025460
     12.99232      6.47809      9.35022         0.007055      0.000611      0.003513
      5.06127      1.91489      9.39154         0.004660     -0.011383      0.014412
      7.75050      6.51389      9.42836         0.009226     -0.002628      0.028560
      9.06426      4.20555      9.30562         0.005201     -0.020637      0.015881
      5.05027      6.51115      9.42266        -0.000621      0.007411      0.003947
      7.71941      1.91171      9.34080        -0.004017     -0.002953      0.008611
      7.80550      3.39658      6.98894         0.000812      0.003150      0.004331
      6.32293      1.11567      6.92725        -0.000903      0.002696      0.009350
      6.42748      1.11951      0.84379        -0.005247      0.039928      0.011106
      3.74457      4.22498      2.80295         0.002226      0.016260     -0.012704
      1.13598      1.23440      6.89310         0.000605      0.002209      0.004748
      1.05351      1.23301      0.75714         0.004482      0.014806      0.006791
      6.37970      8.73232      2.89580        -0.000040      0.016295      0.027829
      6.39787      4.18699      9.44974         0.012190     -0.012144     -0.021772
      7.71519      4.98986      4.84188        -0.034306     -0.014133      0.043942
     10.34548      6.50070      9.31389        -0.001550      0.025470      0.005904
     14.36690      7.24966      4.78751         0.043290     -0.016775     -0.022775
     11.63481      5.69924      7.00880         0.005944      0.002467      0.011013
      6.43459      5.77716      7.04372         0.015155      0.011025      0.001011
      3.72880      2.59487      4.89932         0.005596     -0.010788     -0.014179
     10.40714      4.90964      4.85294        -0.005570     -0.016198     -0.002849
      3.73909      5.71905      7.06173         0.002330     -0.002834      0.013331
     13.01076      7.95414      0.82285        -0.015012      0.024578     -0.009614
      5.07062      7.97664      0.75916        -0.002471      0.015543     -0.008010
      3.74725      5.77233      0.77268         0.001156      0.008047     -0.015954
      7.73906      1.95923      2.91892         0.003701     -0.003495      0.001627
      9.04575      8.78897      2.87226        -0.004012     -0.015166      0.008738
      2.43029      3.47188      7.05178         0.007741     -0.005043      0.003414
      2.40788      3.44595      0.73676        -0.013493      0.025818     -0.006063
     10.29842      1.96823      2.88139         0.018896     -0.013282     -0.007598
     13.01351      4.98805      4.94410         0.030157     -0.026673     -0.042511
      3.72180      1.09868      7.02805         0.008690      0.005783      0.000191
      9.03652      5.77608      7.06133         0.009040     -0.002265      0.019510
      3.74683      1.15285      0.81959        -0.001578      0.005213      0.001840
      9.06513      5.72471      0.92537        -0.014223      0.019458     -0.009840
      5.21212      3.41637      0.86086        -0.005471      0.009781     -0.018616
     11.65625      8.70496      2.91787        -0.017514     -0.006590     -0.005401
     11.62151      7.29974      4.90178         0.023683     -0.005629     -0.021989
     12.89980      6.49745      2.82364         0.013044     -0.012572     -0.014450
      9.01343      4.18612      2.81919        -0.018574      0.015825      0.010422
      7.80156      8.00915      6.95871        -0.002733      0.005044      0.003967
      7.81053      7.92859      0.86888        -0.017015     -0.003981      0.015378
     10.31657      6.54831      2.89472         0.018967      0.014001     -0.001050
      2.46166      0.31661      4.92733         0.002915     -0.016479     -0.024122
      7.75154      3.52543      0.86333         0.005095      0.007455     -0.002046
      5.10291      1.89984      2.87069         0.005093      0.010540     -0.005154
      5.17349      6.40557      2.77226        -0.026529      0.023229      0.000397
      7.65418      0.39388      4.89233         0.009727     -0.011454     -0.017754
      9.05847      1.15990      7.10713         0.002786     -0.017078     -0.008919
[...]
      9.09183      2.62352      4.93970        -0.012564      0.006076      0.019215
      6.39598      2.67997      4.92292         0.017311     -0.004851     -0.016820
     11.64052      4.17844      2.78900         0.001134      0.007720      0.006275
      2.34972      1.92500      2.86197         0.007554      0.004129     -0.006009
     11.59075      5.72177      0.94802        -0.020787     -0.001832     -0.003649
      6.50379      5.69604      0.91052         0.006507      0.006302      0.011858
      7.71278      6.45493      2.81038        -0.012102      0.022454      0.026186
      6.43155      4.20716      2.83788         0.015276     -0.001608     -0.002788
     10.35614      3.38835      7.01653         0.014636     -0.002810     -0.007338
     10.36553      3.54396      0.90454        -0.012197      0.001812     -0.022059
     10.23662      0.46679      4.91587        -0.026711      0.007625      0.019686
      9.06408      7.34028      4.95059        -0.003547     -0.015395     -0.020207
      6.48344      7.27349      4.94428         0.009642     -0.053961      0.037474
      5.04827      0.31035      4.87551        -0.003244      0.016044     -0.008486
      6.38831      5.74832     10.43743         0.005068     -0.013271      0.008141
    total drift:                                0.028611     -0.027557     -0.007857

  FREE ENERGIE OF THE ION-ELECTRON SYSTEM (eV)
  free  energy   TOTEN  =      -514.79577364 eV

  energy  without entropy=     -514.79436423  energy(sigma->0) =     -514.79530384

 d Force = 0.2205912E-02[ 0.418E-03, 0.399E-02]  d Energy = 0.2222460E-02-0.165E-04
 d Force = 0.9945724E+02[ 0.995E+02, 0.994E+02]  d Ewald  = 0.9945727E+02-0.294E-04

 Conjugate gradient step on ions:
 trial-energy change:   -0.002222  1 .order   -0.002206   -0.003993   -0.000418
  (g-gl).g = 0.221E-02      g.g   = 0.245E-02  gl.gl    = 0.352E-02
 g(Force)  = 0.245E-02   g(Stress)= 0.000E+00 ortho     = 0.195E-03
 gamma     =   0.62910
 trial     =   1.55488
 opt step  =   1.73686  (harmonic =   1.73686) maximal distance =0.01497286
 next E    =  -514.795782   (d E  =  -0.00223)

 reached required accuracy - stopping structural energy minimisation