 vasp.5.4.4.18Apr17-6-g9f103f2a35 (build Nov 30 2020 22:55:02) complex

 executed on             LinuxIFC date 2023.08.07  12:08:57

 INCAR:
 POTCAR:    PAW_PBE Pt 04Feb2005
 POTCAR:    PAW_PBE Cu 22Jun2005
 POTCAR:    PAW_PBE Ni 02Aug2007
 POTCAR:    PAW_PBE Fe 06Sep2000
 POTCAR:    PAW_PBE Co 02Aug2007
 POTCAR:    PAW_PBE H 15Jun2001

 POTCAR:    PAW_PBE Pt 04Feb2005
   VRHFIN =Pt: s1d9

   TITEL  = PAW_PBE Pt 04Feb2005
   POMASS =  195.080; ZVAL   =   10.000    mass and valenz
   ENMAX  =  230.283; ENMIN  =  172.712 eV

 POTCAR:    PAW_PBE Cu 22Jun2005
   VRHFIN =Cu: d10 p1

   TITEL  = PAW_PBE Cu 22Jun2005
   POMASS =   63.546; ZVAL   =   11.000    mass and valenz
   ENMAX  =  295.446; ENMIN  =  221.585 eV

 POTCAR:    PAW_PBE Ni 02Aug2007
   VRHFIN =Ni:

   TITEL  = PAW_PBE Ni 02Aug2007
   POMASS =   58.690; ZVAL   =   10.000    mass and valenz
   ENMAX  =  269.532; ENMIN  =  202.149 eV

 POTCAR:    PAW_PBE Fe 06Sep2000
   VRHFIN =Fe:  d7 s1

   TITEL  = PAW_PBE Fe 06Sep2000
   POMASS =   55.847; ZVAL   =    8.000    mass and valenz
   ENMAX  =  267.882; ENMIN  =  200.911 eV

 POTCAR:    PAW_PBE Co 02Aug2007
   VRHFIN =Co: d8 s1

   TITEL  = PAW_PBE Co 02Aug2007
   POMASS =   58.933; ZVAL   =    9.000    mass and valenz
   ENMAX  =  267.968; ENMIN  =  200.976 eV

 POTCAR:    PAW_PBE H 15Jun2001
   VRHFIN =H: ultrasoft test

   TITEL  = PAW_PBE H 15Jun2001
   POMASS =    1.000; ZVAL   =    1.000    mass and valenz
   ENMAX  =  250.000; ENMIN  =  200.000 eV

 Optimization of the real space projectors (new method)

 maximal supplied QI-value         = 14.36
 optimisation between [QCUT,QGAM] = [ 11.92, 23.98] = [ 39.79,161.09] Ry
 Optimized for a Real-space Cutoff    1.49 Angstroem

   l    n(q)    QCUT    max X(q) W(low)/X(q) W(high)/X(q)  e(spline)
   2     10    11.920    66.195    0.79E-04    0.18E-03    0.24E-06
   2     10    11.920    64.643    0.81E-04    0.19E-03    0.24E-06
   0     11    11.920    95.520    0.28E-04    0.54E-04    0.18E-06
   0     11    11.920    63.403    0.27E-04    0.52E-04    0.17E-06
   1     10    11.920    19.961    0.18E-04    0.11E-03    0.23E-06
   1     10    11.920    13.289    0.25E-04    0.87E-04    0.19E-06
 Optimization of the real space projectors (new method)

[...]

   l    n(q)    QCUT    max X(q) W(low)/X(q) W(high)/X(q)  e(spline)
   2      9    11.864    65.824    0.22E-03    0.53E-03    0.26E-06
   2      9    11.864    61.429    0.22E-03    0.53E-03    0.26E-06
   0      9    11.864    56.174    0.21E-03    0.32E-04    0.15E-06
   0      9    11.864    31.263    0.19E-03    0.30E-04    0.14E-06
   1      9    11.864    19.828    0.63E-04    0.30E-03    0.16E-06
   1      9    11.864    15.139    0.49E-04    0.25E-03    0.13E-06
 Optimization of the real space projectors (new method)

 maximal supplied QI-value         = 34.20
 optimisation between [QCUT,QGAM] = [ 11.97, 23.94] = [ 40.13,160.53] Ry
 Optimized for a Real-space Cutoff    1.18 Angstroem

   l    n(q)    QCUT    max X(q) W(low)/X(q) W(high)/X(q)  e(spline)
   0      8    11.971    19.460    0.15E-03    0.31E-03    0.25E-06
   0      8    11.971    12.209    0.13E-03    0.29E-03    0.25E-06
   1      8    11.971     4.655    0.22E-03    0.24E-03    0.21E-06
  PAW_PBE Pt 04Feb2005                  :
  PAW_PBE Cu 22Jun2005                  :
  PAW_PBE Ni 02Aug2007                  :
  PAW_PBE Fe 06Sep2000                  :
  PAW_PBE Co 02Aug2007                  :
  PAW_PBE H 15Jun2001                   :

 POSCAR: Pt   Cu   Ni   Fe   Co   H
  positions in cartesian coordinates
 exchange correlation table for  LEXCH =        8
   RHO(1)=    0.500       N(1)  =     2000
   RHO(2)=  100.500       N(2)  =     4000

 ion  position               nearest neighbor table
   1  0.792  0.876  0.316-  49 2.56  59 2.56  19 2.63  33 2.65  60 2.67  61 2.67  28 2.68  29 2.68
                             2 2.71  11 2.78  12 2.86   4 2.86
   2  0.046  0.881  0.316-  79 2.54  77 2.57  60 2.61  30 2.64  22 2.66  28 2.66  52 2.68   1 2.71
                            33 2.74   6 2.76   4 2.81  16 2.90
   3  0.289  0.377  0.320-  64 2.58  33 2.61  39 2.61  68 2.63  31 2.65  19 2.68  43 2.69  30 2.70
                             5 2.75  18 2.78  25 2.84  13 2.84
   4  0.884  0.956  0.424-  12 2.63  16 2.64  11 2.64  17 2.64   9 2.65   6 2.66  60 2.71   2 2.81
                             1 2.86
   5  0.134  0.455  0.427-  12 2.62   7 2.62  13 2.63  10 2.63  25 2.64  16 2.65   3 2.75  33 2.81
                            39 2.82
   6  0.135  0.957  0.421-   8 2.63  10 2.63  14 2.63   9 2.65  16 2.65   4 2.66   2 2.76  52 2.78
                            22 2.88
   7  0.887  0.453  0.423-  10 2.61   9 2.62   5 2.62  15 2.65  27 2.66  12 2.66  39 2.67  29 2.74
                            75 2.78
   8  0.384  0.956  0.418-   6 2.63  61 2.63  43 2.63  14 2.64  10 2.64  11 2.64  13 2.64  27 2.67
                            52 2.68
   9  0.883  0.207  0.422-   7 2.62  15 2.62  17 2.64   6 2.65   4 2.65  10 2.65  60 2.66  75 2.72
                            22 2.80
  10  0.134  0.206  0.423-   7 2.61  13 2.62   6 2.63   5 2.63   8 2.64   9 2.65  43 2.70  39 2.77
                            22 2.83
  11  0.633  0.958  0.424-  17 2.63  13 2.64   4 2.64   8 2.64  27 2.66  12 2.68   1 2.78  19 2.82
                            61 2.84
  12  0.887  0.705  0.425-  16 2.61   5 2.62   4 2.63  27 2.66   7 2.66  11 2.68  33 2.69  29 2.81
                             1 2.86
  13  0.382  0.206  0.428-  10 2.62   5 2.63  11 2.64   8 2.64  17 2.65  25 2.66   3 2.84  19 2.87
                            43 2.87
  14  0.383  0.707  0.425-   6 2.63  16 2.64   8 2.64  25 2.64  15 2.66  27 2.66  44 2.68  30 2.78
                            52 2.85
  15  0.635  0.455  0.423-   9 2.62  17 2.64  25 2.65   7 2.65  27 2.65  14 2.66  75 2.74  44 2.75
                            18 2.77
  16  0.134  0.706  0.426-  12 2.61  25 2.63  14 2.64   4 2.64   6 2.65   5 2.65  30 2.77  33 2.82
                             2 2.90
  17  0.633  0.206  0.425-  11 2.63  15 2.64   4 2.64   9 2.64  25 2.65  13 2.65  60 2.69  18 2.81
                            19 2.93
  18  0.556  0.370  0.318-  67 2.52  75 2.55  60 2.57  68 2.60  26 2.68  44 2.69  19 2.72  30 2.76
                            15 2.77   3 2.78  17 2.81  25 2.88
  19  0.539  0.121  0.315-  59 2.53  68 2.55  80 2.55  43 2.60  61 2.61   1 2.63   3 2.68  18 2.72
                            60 2.75  11 2.82  13 2.87  17 2.93
  20  0.547  0.122  0.038-  57 2.54  37 2.59  48 2.60  62 2.60  47 2.60  34 2.65  45 2.68  63 2.71
                            56 2.75
  21  0.124  0.462  0.127-  36 2.55  47 2.57  40 2.58  58 2.61  42 2.61  64 2.63  31 2.66  69 2.66
                            50 2.67  74 2.69  70 2.69  57 2.69
  22  0.042  0.134  0.313-  65 2.47  55 2.53  75 2.54  77 2.58  43 2.59  39 2.60  60 2.65   2 2.66
                            52 2.74   9 2.80  10 2.83   6 2.88
  23  0.032  0.135  0.034-  70 2.57  62 2.59  40 2.59  41 2.60  76 2.63  45 2.70  24 2.70  35 2.71
                            53 2.86
  24  0.127  0.955  0.132-  79 2.52  55 2.55  53 2.61  35 2.62  77 2.62  58 2.62  73 2.64  70 2.65
                            38 2.67  66 2.68  23 2.70  41 2.74
  25  0.383  0.457  0.427-  16 2.63  14 2.64   5 2.64  15 2.65  17 2.65  13 2.66   3 2.84  30 2.85
                            18 2.88
  26  0.458  0.546  0.220-  73 2.50  74 2.51  51 2.53  79 2.60  64 2.61  30 2.64  68 2.66  18 2.68
                            32 2.69  78 2.71  44 2.73  67 2.74
  27  0.636  0.705  0.431-  82 1.88  81 1.90  15 2.65  11 2.66  12 2.66   7 2.66  14 2.66   8 2.67
                            29 2.77  44 2.85  61 2.95
  28  0.964  0.793  0.218-  66 2.54  50 2.56  58 2.58  77 2.63  42 2.64  64 2.65   2 2.66   1 2.68
                            79 2.68  59 2.70  33 2.74  49 2.75
  29  0.785  0.625  0.321-  44 2.55  61 2.61  39 2.64  75 2.64  32 2.64  42 2.66   1 2.68  49 2.69
                            33 2.70   7 2.74  27 2.77  12 2.81
  30  0.294  0.631  0.319-  79 2.56  64 2.60  44 2.60  52 2.63   2 2.64  26 2.64  33 2.70   3 2.70
                            18 2.76  16 2.77  14 2.78  25 2.85
  31  0.211  0.284  0.223-  57 2.55  70 2.55  65 2.59  43 2.60  55 2.61  80 2.64   3 2.65  39 2.65
                            21 2.66  68 2.67  42 2.71  64 2.72
  32  0.717  0.537  0.221-  69 2.51  54 2.56  51 2.57  65 2.60  42 2.61  67 2.64  29 2.64  75 2.65
                            49 2.68  26 2.69  44 2.76  78 2.78
  33  0.042  0.624  0.320-  42 2.56  39 2.57   3 2.61  64 2.63   1 2.65  12 2.69  29 2.70  30 2.70
                            28 2.74   2 2.74   5 2.81  16 2.82
  34  0.797  0.870  0.037-  50 2.48  66 2.50  36 2.54  48 2.61  35 2.62  63 2.64  71 2.65  20 2.65
                            62 2.72
  35  0.044  0.872  0.035-  58 2.56  36 2.57  66 2.61  24 2.62  34 2.62  72 2.70  23 2.71  62 2.72
                            53 2.74
  36  0.039  0.631  0.035-  58 2.54  34 2.54  21 2.55  35 2.57  50 2.59  40 2.68  71 2.72  72 2.76
                            47 2.78
  37  0.626  0.214  0.133-  68 2.52  59 2.52  67 2.52  41 2.56  51 2.57  56 2.58  66 2.59  20 2.59
                            74 2.60  62 2.60  57 2.64  48 2.76
  38  0.376  0.961  0.131-  80 2.47  53 2.51  55 2.53  78 2.53  63 2.53  45 2.55  54 2.58  48 2.61
                            57 2.62  24 2.67  70 2.69  73 2.69
  39  0.040  0.381  0.320-  33 2.57  42 2.58  22 2.60   3 2.61  75 2.63  29 2.64  31 2.65  65 2.66
                             7 2.67  43 2.72  10 2.77   5 2.82
  40  0.040  0.377  0.033-  69 2.55  21 2.58  23 2.59  76 2.61  70 2.61  45 2.66  71 2.67  36 2.68
                            47 2.81
  41  0.868  0.215  0.131-  67 2.47  65 2.53  76 2.53  77 2.53  37 2.56  51 2.56  62 2.57  69 2.59
                            23 2.60  70 2.61  66 2.63  24 2.74
  42  0.960  0.545  0.225-  33 2.56  39 2.58  50 2.61  32 2.61  21 2.61  28 2.64  64 2.65  29 2.66
                            69 2.68  65 2.69  49 2.70  31 2.71
  43  0.294  0.120  0.319-  52 2.54  55 2.57  22 2.59  61 2.60  31 2.60  19 2.60   8 2.63  80 2.64
                             3 2.69  10 2.70  39 2.72  13 2.87
  44  0.540  0.631  0.322-  52 2.55  29 2.55  61 2.56  30 2.60  78 2.65  14 2.68  18 2.69  26 2.73
                            75 2.74  15 2.75  32 2.76  27 2.85
  45  0.292  0.126  0.037-  38 2.55  57 2.57  70 2.59  40 2.66  53 2.66  20 2.68  23 2.70  47 2.70
                            63 2.74
  46  0.545  0.626  0.042-  73 2.43  51 2.44  54 2.47  71 2.53  53 2.54  76 2.54  63 2.55  72 2.56
                            56 2.56
  47  0.307  0.374  0.039-  74 2.45  57 2.52  56 2.54  21 2.57  20 2.60  72 2.62  45 2.70  36 2.78
                            40 2.81
  48  0.628  0.952  0.133-  49 2.43  80 2.48  59 2.50  63 2.52  50 2.54  54 2.54  20 2.60  34 2.61
                            66 2.61  38 2.61  57 2.66  37 2.76
  49  0.701  0.798  0.223-  48 2.43  54 2.51  80 2.51  61 2.55  78 2.56   1 2.56  50 2.57  59 2.60
                            32 2.68  29 2.69  42 2.70  28 2.75
  50  0.866  0.710  0.128-  71 2.42  34 2.48  48 2.54  28 2.56  49 2.57  54 2.58  36 2.59  42 2.61
                            69 2.64  21 2.67  66 2.71  58 2.84
[...]
      2.46166      0.31661      4.92733         0.045223     -0.008303     -0.043211
      7.75154      3.52543      0.86333         0.013235     -0.026797     -0.019424
      5.10291      1.89984      2.87069        -0.040470      0.110608      0.047479
      5.17349      6.40557      2.77226         0.021888      0.079049     -0.015902
      7.65418      0.39388      4.89233        -0.017550     -0.081443     -0.108049
      9.07735      1.14749      7.11592         0.009522     -0.002066     -0.022127
[...]
      6.39598      2.67997      4.92292         0.026818     -0.090775     -0.026089
     11.64052      4.17844      2.78900         0.066757      0.062811      0.034301
      2.34972      1.92500      2.86197         0.025457      0.029940     -0.006673
     11.59075      5.72177      0.94802        -0.225780      0.089950      0.039100
      6.50379      5.69604      0.91052         0.000774     -0.025444      0.003617
      7.71278      6.45493      2.81038        -0.018586     -0.063807      0.135610
      6.43155      4.20716      2.83788        -0.035071     -0.035370      0.011216
     10.37103      3.37756      7.01687         0.003408     -0.020867     -0.020930
     10.36553      3.54396      0.90454        -0.034723      0.061485     -0.055781
     10.23662      0.46679      4.91587        -0.050541      0.215648      0.188326
      9.06408      7.34028      4.95059         0.024255     -0.051327     -0.086063
      6.48344      7.27349      4.94428         0.132249     -0.073532     -0.011812
      5.04827      0.31035      4.87551         0.114577     -0.013400     -0.036070
      9.92369      6.64836     11.29738        -0.059074      0.001554     -0.030406
     10.71073      6.40820     11.32753         0.045147     -0.013921      0.043620
    total drift:                                0.029606     -0.018140     -0.008375

  FREE ENERGIE OF THE ION-ELECTRON SYSTEM (eV)
  free  energy   TOTEN  =      -516.03960379 eV

  energy  without entropy=     -516.03960379  energy(sigma->0) =     -516.03960379

 d Force =-0.5720428E-04[-0.131E-02, 0.119E-02]  d Energy = 0.1242575E-03-0.181E-03
 d Force =-0.9567789E+01[-0.959E+01,-0.954E+01]  d Ewald  =-0.9567730E+01-0.588E-04

 Finite differences progress:
  Degree of freedom:   6/  6
  Displacement:        2/  2
  Total:              12/ 12

 SECOND DERIVATIVES (NOT SYMMETRIZED)
              81X         81Y         81Z         82X         82Y         82Z
 81X   -17.562673    5.415261    1.821273   16.868406   -5.171749    2.967615
 81Y     5.310209   -1.924485   -0.662717   -5.179400    1.416500   -0.899923
 81Z     1.831219   -0.616801   -1.956297   -0.956397    0.344314    1.557930
 82X    16.874848   -5.259110   -0.985050  -17.249981    5.126452   -3.675599
 82Y    -5.148322    1.406086    0.354247    5.077161   -1.753261    1.040115
 82Z     2.967400   -0.859411    1.552240   -3.657540    1.024084   -2.780885

 Eigenvectors and eigenvalues of the dynamical matrix

   1 f  =   96.654975 THz   607.301121 2PiTHz 3224.062839 cm-1   399.732990 meV
             X         Y         Z           dx          dy          dz
     12.984411  8.010217  6.948806            0           0           0
      5.135416  8.057897  6.951502            0           0           0
      5.041631  3.449401  7.040664            0           0           0
     14.376808  8.740492  9.338541            0           0           0
      3.814297  4.162737  9.399108            0           0           0
      6.473712  8.749788  9.269949            0           0           0
     11.754697  4.141565  9.309357            0           0           0
      9.098436  8.740733  9.187158            0           0           0
     10.417119  1.890238  9.288850            0           0           0
      2.505224  1.879985  9.295009            0           0           0
     11.736102  8.756666  9.320065            0           0           0
     13.090258  6.443436  9.339092            0           0           0
      5.122231  1.883155  9.407159            0           0           0
      7.778099  6.464806  9.355271            0           0           0
      9.103520  4.157899  9.313862            0           0           0
      5.142935  6.459178  9.370078            0           0           0
      7.774066  1.881982  9.355561            0           0           0
      7.822913  3.382599  6.985368            0           0           0
      6.334576  1.107911  6.927328            0           0           0
      6.427482  1.119509  0.843789            0           0           0
      3.744575  4.224976  2.802947            0           0           0
      1.152797  1.228909  6.891593            0           0           0
      1.053506  1.233006  0.757137            0           0           0
      6.379696  8.732318  2.895796            0           0           0
      6.454634  4.180846  9.388889            0           0           0
      7.715193  4.989863  4.841883            0           0           0
     10.437166  6.444846  9.481372            0           0           0
     14.366899  7.249662  4.787507            0           0           0
     11.592700  5.717383  7.072030            0           0           0
      6.436591  5.766841  7.019171            0           0           0
      3.728800  2.594869  4.899318            0           0           0
     10.407142  4.909645  4.852938            0           0           0
      3.732644  5.703872  7.046271            0           0           0
     13.010760  7.954144  0.822852            0           0           0
      5.070618  7.976644  0.759159            0           0           0
      3.747252  5.772328  0.772685            0           0           0
      7.739055  1.959228  2.918920            0           0           0
      9.045754  8.788967  2.872263            0           0           0
      2.434163  3.481787  7.039647            0           0           0
      2.407877  3.445951  0.736756            0           0           0
     10.298420  1.968233  2.881385            0           0           0
     13.013514  4.988054  4.944101            0           0           0
      3.735431  1.095864  7.023704            0           0           0
      9.039916  5.774996  7.091812            0           0           0
      3.746828  1.152850  0.819592            0           0           0
      9.065133  5.724714  0.925373            0           0           0
      5.212120  3.416365  0.860857            0           0           0
     11.656252  8.704956  2.917869            0           0           0
     11.621509  7.299740  4.901783            0           0           0
     12.899801  6.497445  2.823641            0           0           0
      9.013433  4.186125  2.819185            0           0           0
      7.811054  8.006330  6.954193            0           0           0
      7.810527  7.928589  0.868881            0           0           0
     10.316566  6.548306  2.894722            0           0           0
      2.461657  0.316610  4.927330            0           0           0
      7.751538  3.525426  0.863327            0           0           0
      5.102914  1.899843  2.870690            0           0           0
      5.173495  6.405568  2.772261            0           0           0
      7.654181  0.393883  4.892331            0           0           0
      9.077354  1.147487  7.115923            0           0           0
[...]
      6.395982  2.679971  4.922922            0           0           0
     11.640522  4.178437  2.789004            0           0           0
      2.349716  1.924995  2.861968            0           0           0
     11.590753  5.721772  0.948016            0           0           0
      6.503789  5.696041  0.910522            0           0           0
      7.712777  6.454929  2.810380            0           0           0
      6.431551  4.207157  2.837884            0           0           0
     10.371030  3.377556  7.016874            0           0           0
     10.365531  3.543965  0.904545            0           0           0
     10.236619  0.466792  4.915867            0           0           0
      9.064077  7.340275  4.950593            0           0           0
      6.483441  7.273487  4.944283            0           0           0
      5.048274  0.310346  4.875506            0           0           0
      9.923694  6.648363 11.297377     0.672082   -0.207108   -0.051529
     10.710732  6.408197 11.342527    -0.666745    0.200652   -0.133964

[...]

   6 f  =    4.006910 THz    25.176157 2PiTHz  133.656122 cm-1    16.571253 meV
             X         Y         Z           dx          dy          dz
     12.984411  8.010217  6.948806            0           0           0
      5.135416  8.057897  6.951502            0           0           0
      5.041631  3.449401  7.040664            0           0           0
     14.376808  8.740492  9.338541            0           0           0
      3.814297  4.162737  9.399108            0           0           0
      6.473712  8.749788  9.269949            0           0           0
     11.754697  4.141565  9.309357            0           0           0
      9.098436  8.740733  9.187158            0           0           0
     10.417119  1.890238  9.288850            0           0           0
      2.505224  1.879985  9.295009            0           0           0
     11.736102  8.756666  9.320065            0           0           0
     13.090258  6.443436  9.339092            0           0           0
      5.122231  1.883155  9.407159            0           0           0
      7.778099  6.464806  9.355271            0           0           0
      9.103520  4.157899  9.313862            0           0           0
      5.142935  6.459178  9.370078            0           0           0
      7.774066  1.881982  9.355561            0           0           0
      7.822913  3.382599  6.985368            0           0           0
      6.334576  1.107911  6.927328            0           0           0
      6.427482  1.119509  0.843789            0           0           0
      3.744575  4.224976  2.802947            0           0           0
      1.152797  1.228909  6.891593            0           0           0
      1.053506  1.233006  0.757137            0           0           0
      6.379696  8.732318  2.895796            0           0           0
      6.454634  4.180846  9.388889            0           0           0
      7.715193  4.989863  4.841883            0           0           0
     10.437166  6.444846  9.481372            0           0           0
     14.366899  7.249662  4.787507            0           0           0
     11.592700  5.717383  7.072030            0           0           0
      6.436591  5.766841  7.019171            0           0           0
      3.728800  2.594869  4.899318            0           0           0
     10.407142  4.909645  4.852938            0           0           0
      3.732644  5.703872  7.046271            0           0           0
     13.010760  7.954144  0.822852            0           0           0
      5.070618  7.976644  0.759159            0           0           0
      3.747252  5.772328  0.772685            0           0           0
      7.739055  1.959228  2.918920            0           0           0
      9.045754  8.788967  2.872263            0           0           0
      2.434163  3.481787  7.039647            0           0           0
      2.407877  3.445951  0.736756            0           0           0
     10.298420  1.968233  2.881385            0           0           0
     13.013514  4.988054  4.944101            0           0           0
      3.735431  1.095864  7.023704            0           0           0
      9.039916  5.774996  7.091812            0           0           0
      3.746828  1.152850  0.819592            0           0           0
      9.065133  5.724714  0.925373            0           0           0
      5.212120  3.416365  0.860857            0           0           0
     11.656252  8.704956  2.917869            0           0           0
     11.621509  7.299740  4.901783            0           0           0
     12.899801  6.497445  2.823641            0           0           0
      9.013433  4.186125  2.819185            0           0           0
      7.811054  8.006330  6.954193            0           0           0
      7.810527  7.928589  0.868881            0           0           0
     10.316566  6.548306  2.894722            0           0           0
      2.461657  0.316610  4.927330            0           0           0
      7.751538  3.525426  0.863327            0           0           0
      5.102914  1.899843  2.870690            0           0           0
      5.173495  6.405568  2.772261            0           0           0
      7.654181  0.393883  4.892331            0           0           0
      9.077354  1.147487  7.115923            0           0           0
[...]
      6.395982  2.679971  4.922922            0           0           0
     11.640522  4.178437  2.789004            0           0           0
      2.349716  1.924995  2.861968            0           0           0
     11.590753  5.721772  0.948016            0           0           0
      6.503789  5.696041  0.910522            0           0           0
      7.712777  6.454929  2.810380            0           0           0
      6.431551  4.207157  2.837884            0           0           0
     10.371030  3.377556  7.016874            0           0           0
     10.365531  3.543965  0.904545            0           0           0
     10.236619  0.466792  4.915867            0           0           0
      9.064077  7.340275  4.950593            0           0           0
      6.483441  7.273487  4.944283            0           0           0
      5.048274  0.310346  4.875506            0           0           0
      9.923694  6.648363 11.297377     0.237517    0.626538   -0.082569
     10.710732  6.408197 11.342527    -0.153999   -0.719271   -0.056138

 Finite differences POTIM=  1.500000000000000E-002
  LATTYP: Found a hexagonal cell.
 ALAT       =    10.5600004196
 C/A-ratio  =     2.0833332505

  Lattice vectors:

 A1 = (   5.2800002098,  -9.1452286274,   0.0000000000)
 A2 = ( -10.5600004196,   0.0000000000,   0.0000000000)
 A3 = (   0.0000000000,   0.0000000000, -22.0000000000)

Analysis of symmetry for initial positions (statically):
 Subroutine PRICEL returns:
 Original cell was already a primitive cell.

[...]

The static configuration has the point symmetry C_1 .

Analysis of symmetry for dynamics (positions and initial velocities):
 Subroutine PRICEL returns:
 Original cell was already a primitive cell.

[...]

The dynamic configuration has the point symmetry C_1 .

Analysis of constrained symmetry for selective dynamics:
 Subroutine PRICEL returns:
 Original cell was already a primitive cell.

[...]

The constrained configuration has the point symmetry C_1 .

Analysis of structural, dynamic, and magnetic symmetry:
 Subroutine PRICEL returns:
 Original cell was already a primitive cell.

 Routine SETGRP: Setting up the symmetry group for a
 hexagonal supercell.

 Subroutine GETGRP returns: Found  1 space group operations
 (whereof  1 operations were pure point group operations)
 out of a pool of 24 trial point group operations.

The magnetic configuration has the point symmetry C_1 .

 Subroutine INISYM returns: Found  1 space group operations
 (whereof  1 operations are pure point group operations),
 and found     1 'primitive' translations

 KPOINTS: mesh auto

Automatic generation of k-mesh.
Space group operators:
 irot       det(A)        alpha          n_x          n_y          n_z        tau_x        tau_y        tau_z
    1     1.000000     0.000001     1.000000     0.000000     0.000000     0.000000     0.000000     0.000000

 Subroutine IBZKPT returns following result:

 Found      4 irreducible k-points:

 Following reciprocal coordinates:
            Coordinates               Weight
  0.000000  0.000000  0.000000      1.000000
  0.500000  0.000000  0.000000      1.000000
  0.000000  0.500000  0.000000      1.000000
  0.500000  0.500000  0.000000      1.000000

 Following cartesian coordinates:
            Coordinates               Weight
  0.000000  0.000000  0.000000      1.000000
  0.047348 -0.027337  0.000000      1.000000
  0.000000  0.054673  0.000000      1.000000
  0.047348  0.027337  0.000000      1.000000

 TETIRR: Found     12 inequivalent tetrahedra from       24
 BZINTS: Fermi energy:  2.106557;777.000000 electrons
         Band energy:-639.715982;  BLOECHL correction: -0.110774