 vasp.5.4.4.18Apr17-6-g9f103f2a35 (build Nov 30 2020 22:55:02) complex

 executed on             LinuxIFC date 2023.09.07  20:03:28

 INCAR:
 POTCAR:    PAW_PBE Pt 04Feb2005
 POTCAR:    PAW_PBE H 15Jun2001
 POTCAR:    PAW_PBE Pt 04Feb2005
   VRHFIN =Pt: s1d9

   TITEL  = PAW_PBE Pt 04Feb2005
   POMASS =  195.080; ZVAL   =   10.000    mass and valenz
   ENMAX  =  230.283; ENMIN  =  172.712 eV

 POTCAR:    PAW_PBE H 15Jun2001
   VRHFIN =H: ultrasoft test

   TITEL  = PAW_PBE H 15Jun2001
   POMASS =    1.000; ZVAL   =    1.000    mass and valenz
   ENMAX  =  250.000; ENMIN  =  200.000 eV

 Optimization of the real space projectors (new method)

 maximal supplied QI-value         = 14.36
 optimisation between [QCUT,QGAM] = [ 11.92, 23.98] = [ 39.79,161.09] Ry
 Optimized for a Real-space Cutoff    1.49 Angstroem

   l    n(q)    QCUT    max X(q) W(low)/X(q) W(high)/X(q)  e(spline)
   2     10    11.920    66.195    0.79E-04    0.18E-03    0.24E-06
   2     10    11.920    64.643    0.81E-04    0.19E-03    0.24E-06
   0     11    11.920    95.520    0.28E-04    0.54E-04    0.18E-06
   0     11    11.920    63.403    0.27E-04    0.52E-04    0.17E-06
   1     10    11.920    19.961    0.18E-04    0.11E-03    0.23E-06
   1     10    11.920    13.289    0.25E-04    0.87E-04    0.19E-06
 Optimization of the real space projectors (new method)

 maximal supplied QI-value         = 34.20
 optimisation between [QCUT,QGAM] = [ 11.97, 23.94] = [ 40.13,160.53] Ry
 Optimized for a Real-space Cutoff    1.18 Angstroem

   l    n(q)    QCUT    max X(q) W(low)/X(q) W(high)/X(q)  e(spline)
   0      8    11.971    19.460    0.15E-03    0.31E-03    0.25E-06
   0      8    11.971    12.209    0.13E-03    0.29E-03    0.25E-06
   1      8    11.971     4.655    0.22E-03    0.24E-03    0.21E-06
  PAW_PBE Pt 04Feb2005                  :
  PAW_PBE H 15Jun2001                   :

 POSCAR: Pt111
  positions in cartesian coordinates
 exchange correlation table for  LEXCH =        8
   RHO(1)=    0.500       N(1)  =     2000
   RHO(2)=  100.500       N(2)  =     4000

 ion  position               nearest neighbor table
   1  0.785  0.869  0.331-   3 2.71   2 2.71  73 2.72  72 2.72  56 2.72  43 2.72  71 2.78  20 2.78
                            55 2.78  27 2.82  35 2.82  34 2.83
   2  0.035  0.869  0.331-  57 2.71   3 2.71  23 2.71   1 2.71  47 2.72  72 2.72  55 2.78  65 2.78
                            68 2.78  29 2.82  27 2.82  39 2.83
   3  0.034  0.619  0.331-   2 2.71   1 2.71  56 2.72   9 2.72  15 2.72  57 2.72  12 2.78  55 2.78
                            76 2.79  39 2.82  35 2.83  28 2.83
   4  0.787  0.867  0.015-  58 2.71   5 2.71  75 2.71   6 2.71  74 2.72  44 2.72  21 2.82  78 2.82
                            19 2.83
   5  0.037  0.868  0.015-  48 2.71  74 2.71   4 2.71  24 2.72   6 2.72  59 2.72  70 2.82  49 2.82
                            78 2.83
   6  0.037  0.618  0.015-  18 2.71  59 2.71   4 2.71  58 2.72   5 2.72  10 2.72  46 2.82  70 2.82
                            21 2.83
   7  0.619  0.202  0.122-  78 2.71  19 2.71  11 2.71  61 2.71  53 2.72  22 2.72  71 2.78  79 2.78
                            80 2.79  42 2.82  44 2.82  74 2.83
   8  0.369  0.952  0.122-  54 2.71  49 2.71  60 2.72  25 2.72  19 2.72  53 2.72  66 2.78  69 2.78
                            26 2.79  16 2.82  24 2.82  75 2.83
   9  0.034  0.369  0.331-  47 2.71  13 2.71  15 2.71   3 2.72  56 2.72  63 2.72  12 2.78  77 2.78
                            62 2.78  33 2.82  30 2.82  28 2.83
  10  0.037  0.367  0.016-  64 2.71  48 2.71  16 2.72  18 2.72  58 2.72   6 2.72  54 2.82  46 2.83
                            45 2.83
  11  0.869  0.202  0.122-  22 2.71   7 2.71  54 2.72  78 2.72  49 2.72  45 2.72  65 2.78  77 2.78
                            79 2.79  64 2.82  74 2.83  48 2.83
  12  0.952  0.536  0.227-  62 2.71  76 2.71  55 2.71  20 2.72  67 2.72  77 2.72  45 2.78  21 2.78
                             9 2.78   3 2.78  46 2.78  56 2.78
  13  0.284  0.119  0.331-  15 2.71   9 2.71  47 2.71  23 2.72  43 2.72  73 2.72  62 2.78  26 2.78
                            69 2.79  36 2.82  31 2.82  33 2.83
  14  0.534  0.620  0.331-  56 2.71  23 2.71  63 2.71  73 2.71  57 2.72  41 2.72  66 2.78  51 2.78
                            67 2.79  52 2.82  38 2.82  37 2.83
  15  0.284  0.369  0.331-  41 2.71  13 2.71  43 2.71   9 2.71   3 2.72  57 2.72  62 2.78  76 2.78
                            80 2.79  36 2.82  50 2.82  28 2.83
  16  0.287  0.118  0.016-  44 2.71  75 2.71  10 2.72  18 2.72  48 2.72  24 2.72   8 2.82  53 2.82
                            54 2.83
  17  0.537  0.618  0.015-  24 2.71  59 2.71  64 2.72  42 2.72  58 2.72  75 2.72  22 2.82  25 2.82
                            60 2.83
  18  0.287  0.368  0.016-   6 2.71  59 2.71  44 2.72  10 2.72  16 2.72  42 2.72  53 2.82  61 2.82
                            46 2.83
  19  0.619  0.952  0.122-  78 2.71  25 2.71  21 2.71   7 2.71   8 2.72  53 2.72  20 2.78  71 2.78
                            69 2.79  44 2.82  75 2.82   4 2.83
  20  0.702  0.786  0.227-  71 2.71  66 2.71  69 2.72  55 2.72  67 2.72  12 2.72  19 2.78  25 2.78
                            56 2.78   1 2.78  21 2.78  73 2.79
  21  0.869  0.702  0.122-  25 2.71  78 2.71  19 2.71  45 2.71  46 2.72  70 2.72  12 2.78  55 2.78
                            20 2.78   4 2.82  58 2.82   6 2.83
  22  0.620  0.452  0.122-  11 2.71  45 2.71  61 2.71  25 2.72  60 2.72   7 2.72  79 2.78  67 2.78
                            51 2.79  17 2.82  42 2.82  64 2.83
  23  0.285  0.869  0.331-  14 2.71  57 2.71  73 2.71   2 2.71  13 2.72  47 2.72  68 2.78  26 2.78
                            66 2.79  31 2.82  37 2.82  29 2.83
  24  0.287  0.867  0.015-  17 2.71  59 2.71  48 2.72   5 2.72  16 2.72  75 2.72  60 2.82   8 2.82
                            49 2.83
  25  0.619  0.702  0.122-  19 2.71  45 2.71  21 2.71   8 2.72  22 2.72  60 2.72  20 2.78  67 2.78
                            66 2.79  17 2.82  75 2.82  58 2.83
  26  0.202  0.036  0.227-  77 2.71  68 2.71  65 2.71  62 2.71  69 2.72  66 2.72  54 2.78  49 2.78
                            23 2.78  13 2.78  47 2.79   8 2.79
  27  0.868  0.953  0.438-  29 2.71  32 2.72  39 2.72  34 2.72  35 2.72  40 2.72   1 2.82  72 2.82
                             2 2.82
  28  0.117  0.453  0.438-  39 2.71  50 2.71  30 2.71  33 2.72  35 2.72  36 2.72   3 2.83   9 2.83
                            15 2.83
  29  0.117  0.953  0.438-  27 2.71  31 2.71  39 2.71  37 2.72  32 2.72  33 2.72   2 2.82  47 2.82
                            23 2.83
  30  0.868  0.453  0.438-  32 2.71  33 2.71  35 2.71  28 2.71  52 2.72  38 2.72   9 2.82  63 2.83
                            56 2.83
  31  0.367  0.953  0.438-  36 2.71  37 2.71  33 2.71  29 2.71  52 2.72  34 2.72  23 2.82  13 2.82
                            73 2.83
  32  0.867  0.203  0.438-  30 2.71  38 2.71  27 2.72  40 2.72  33 2.72  29 2.72  63 2.82  72 2.83
                            47 2.83
  33  0.117  0.203  0.438-  30 2.71  31 2.71  36 2.71  28 2.72  32 2.72  29 2.72   9 2.82  47 2.82
                            13 2.83
  34  0.618  0.953  0.438-  35 2.71  36 2.71  40 2.71  27 2.72  52 2.72  31 2.72  73 2.82  43 2.82
                             1 2.83
  35  0.867  0.703  0.438-  52 2.71  34 2.71  30 2.71  28 2.72  27 2.72  39 2.72  56 2.82   1 2.82
                             3 2.83
  36  0.367  0.203  0.438-  31 2.71  34 2.71  33 2.71  40 2.71  50 2.72  28 2.72  13 2.82  15 2.82
                            43 2.83
  37  0.368  0.703  0.438-  81 1.51  52 2.71  38 2.71  31 2.71  29 2.72  50 2.72  39 2.72  57 2.82
                            23 2.82  14 2.83
  38  0.617  0.453  0.438-  81 1.87  40 2.71  37 2.71  32 2.71  50 2.72  52 2.72  30 2.72  41 2.82
                            14 2.82  63 2.83
  39  0.117  0.703  0.438-  50 2.71  28 2.71  29 2.71  27 2.72  35 2.72  37 2.72   3 2.82  57 2.83
                             2 2.83
  40  0.617  0.203  0.438-  38 2.71  34 2.71  36 2.71  50 2.72  32 2.72  27 2.72  41 2.82  43 2.82
                            72 2.83
  41  0.534  0.370  0.331-  57 2.71  15 2.71  43 2.71  63 2.72  72 2.72  14 2.72  80 2.78  51 2.78
                            79 2.79  40 2.82  38 2.82  50 2.83
  42  0.538  0.367  0.015-  74 2.71  44 2.71  64 2.71  17 2.72  59 2.72  18 2.72   7 2.82  22 2.82
                            61 2.83
  43  0.534  0.120  0.331-  41 2.71  15 2.71  72 2.71  13 2.72  73 2.72   1 2.72  80 2.78  69 2.78
                            71 2.79  40 2.82  34 2.82  36 2.83
  44  0.537  0.118  0.015-  16 2.71  42 2.71  75 2.71  74 2.71  18 2.72   4 2.72  19 2.82   7 2.82
                            53 2.83
  45  0.869  0.452  0.122-  22 2.71  25 2.71  21 2.71  46 2.72  11 2.72  54 2.72  77 2.78  12 2.78
                            67 2.78  58 2.82  64 2.82  10 2.83
  46  0.119  0.452  0.122-  53 2.71  45 2.72  21 2.72  54 2.72  61 2.72  70 2.72  62 2.78  76 2.78
                            12 2.78   6 2.82  10 2.83  18 2.83
  47  0.034  0.119  0.331-   9 2.71  13 2.71  72 2.72  63 2.72  23 2.72   2 2.72  77 2.78  65 2.78
                            26 2.79  29 2.82  33 2.82  32 2.83
  48  0.037  0.118  0.015-   5 2.71  10 2.71  24 2.72  74 2.72  64 2.72  16 2.72  49 2.82  54 2.83
                            11 2.83
  49  0.119  0.952  0.122-  70 2.71  54 2.71   8 2.71  60 2.71  11 2.72  78 2.72  68 2.78  26 2.78
                            65 2.79  48 2.82   5 2.82  24 2.83
  50  0.367  0.453  0.438-  81 1.90  39 2.71  28 2.71  38 2.72  40 2.72  37 2.72  36 2.72  15 2.82
                            57 2.83  41 2.83
  51  0.452  0.536  0.227-  79 2.71  80 2.71  76 2.71  67 2.72  68 2.72  66 2.72  41 2.78  60 2.78
                            61 2.78  14 2.78  22 2.79  57 2.79
  52  0.617  0.703  0.438-  35 2.71  37 2.71  38 2.72  30 2.72  34 2.72  31 2.72  14 2.82  73 2.82
                            56 2.83
  53  0.369  0.202  0.122-  46 2.71  54 2.71   7 2.72   8 2.72  61 2.72  19 2.72  69 2.78  80 2.78
                            62 2.79  18 2.82  16 2.82  44 2.83
  54  0.119  0.202  0.122-  49 2.71   8 2.71  53 2.71  11 2.72  46 2.72  45 2.72  26 2.78  62 2.78
                            77 2.79  10 2.82  48 2.83  16 2.83
  55  0.952  0.786  0.227-  76 2.71  12 2.71  65 2.71  68 2.71  20 2.72  71 2.72   2 2.78  78 2.78
                             3 2.78  21 2.78   1 2.78  70 2.79
  56  0.784  0.619  0.331-  14 2.71  73 2.71   3 2.72  63 2.72   9 2.72   1 2.72  67 2.78  20 2.78
                            12 2.78  35 2.82  30 2.83  52 2.83
  57  0.284  0.619  0.331-   2 2.71  41 2.71  23 2.71  14 2.72   3 2.72  15 2.72  68 2.78  76 2.78
                            51 2.79  37 2.82  50 2.83  39 2.83
  58  0.787  0.618  0.015-   4 2.71  75 2.71  64 2.71   6 2.72  17 2.72  10 2.72  21 2.82  45 2.82
                            25 2.83
  59  0.287  0.618  0.015-  17 2.71  24 2.71  18 2.71   6 2.71  42 2.72   5 2.72  61 2.82  60 2.82
                            70 2.83
  60  0.369  0.702  0.122-  70 2.71  61 2.71  49 2.71   8 2.72  22 2.72  25 2.72  51 2.78  66 2.78
                            68 2.79  24 2.82  59 2.82  17 2.83
  61  0.370  0.452  0.122-  60 2.71  22 2.71   7 2.71  70 2.72  53 2.72  46 2.72  51 2.78  80 2.78
[...]
   0.166E+00 0.467E+00 -.134E+04   -.148E+00 -.485E+00 0.134E+04   -.298E-01 0.148E-01 0.570E+00   0.261E-03 0.110E-02 0.106E-02
   0.126E+00 -.309E+00 0.267E+04   -.101E+00 0.265E+00 -.267E+04   -.311E-01 0.621E-01 -.758E+00   0.205E-03 0.131E-02 -.434E-03
   -.836E+00 0.182E+01 0.267E+04   0.830E+00 -.176E+01 -.267E+04   0.224E-01 -.844E-01 -.748E+00   -.840E-04 0.470E-03 -.311E-03
   0.193E+00 0.608E+00 0.267E+04   -.167E+00 -.635E+00 -.267E+04   -.364E-01 0.281E-01 -.757E+00   0.873E-03 0.109E-02 -.758E-03
   0.162E+00 -.708E+00 0.135E+04   -.161E+00 0.706E+00 -.135E+04   -.602E-02 0.302E-01 -.585E+00   0.126E-02 0.542E-04 -.377E-02
   -.867E+00 0.396E+00 0.135E+04   0.876E+00 -.383E+00 -.135E+04   -.530E-02 -.241E-01 -.545E+00   0.146E-03 -.207E-02 -.191E-02
   -.109E-02 -.333E+00 -.135E+04   -.678E-02 0.331E+00 0.135E+04   0.847E-02 0.267E-01 0.539E+00   -.106E-02 -.171E-02 0.189E-02
   -.143E+01 -.726E+00 0.267E+04   0.141E+01 0.660E+00 -.266E+04   0.422E-01 0.973E-01 -.705E+00   -.108E-02 0.262E-03 -.135E-02
   0.534E+00 -.125E+00 0.136E+04   -.509E+00 0.114E+00 -.136E+04   -.175E-01 0.217E-01 -.529E+00   -.161E-02 -.330E-03 -.285E-02
   -.380E-01 0.420E+00 0.300E+01   0.379E-01 -.418E+00 -.295E+01   0.450E-03 -.465E-02 -.359E-01   -.876E-03 0.113E-02 -.219E-02
   -.142E+00 0.105E+00 -.134E+04   0.126E+00 -.866E-01 0.134E+04   0.231E-01 -.359E-01 0.556E+00   -.331E-03 0.628E-04 0.177E-02
   0.171E+01 0.190E+01 -.135E+04   -.178E+01 -.194E+01 0.135E+04   0.791E-01 0.192E-01 0.587E+00   -.843E-05 0.334E-03 0.124E-02
   0.762E-01 -.375E+00 -.135E+04   0.102E+00 0.478E+00 0.135E+04   -.185E+00 -.847E-01 0.362E+00   0.686E-03 -.135E-02 0.306E-02
   0.835E+00 -.914E+00 0.267E+04   -.816E+00 0.894E+00 -.267E+04   -.216E-01 0.225E-01 -.707E+00   0.718E-03 -.992E-03 -.139E-02
   -.423E-01 -.113E+00 0.267E+04   0.601E-01 0.115E+00 -.267E+04   0.268E-02 0.731E-02 -.753E+00   -.840E-03 -.121E-02 -.279E-03
   0.168E+00 0.175E+00 0.267E+04   -.195E+00 -.173E+00 -.266E+04   0.311E-01 -.131E-01 -.693E+00   0.258E-02 0.378E-03 -.146E-02
   0.365E+00 -.403E+00 0.136E+04   -.368E+00 0.401E+00 -.136E+04   -.148E-01 0.121E-01 -.542E+00   0.636E-03 -.676E-03 -.238E-02
   -.173E-01 0.150E+00 0.436E+01   0.147E-01 -.151E+00 -.435E+01   0.134E-01 0.657E-02 -.104E-01   -.755E-03 0.394E-04 -.260E-02
   -.518E+00 0.475E+00 0.135E+04   0.530E+00 -.484E+00 -.135E+04   0.157E-02 -.693E-02 -.539E+00   -.419E-03 0.130E-02 -.185E-02
   0.728E+00 -.684E-01 0.135E+04   -.721E+00 0.601E-01 -.135E+04   -.340E-01 0.137E-01 -.515E+00   -.433E-03 0.510E-03 -.376E-02
   -.159E+00 -.285E+00 -.135E+04   0.153E+00 0.943E-01 0.135E+04   0.842E-02 0.199E+00 0.378E+00   -.342E-03 -.310E-03 0.796E-03
   -.819E-01 -.400E+00 0.267E+04   0.852E-01 0.399E+00 -.267E+04   -.161E-02 0.213E-01 -.680E+00   -.203E-03 -.168E-02 -.389E-03
   0.453E+00 0.230E+00 0.136E+04   -.450E+00 -.231E+00 -.135E+04   -.322E-01 -.698E-02 -.587E+00   -.869E-03 -.228E-03 -.213E-02
   -.766E-01 0.123E+01 0.419E+01   0.720E-01 -.122E+01 -.421E+01   0.497E-02 -.157E-01 0.582E-01   -.882E-03 -.988E-03 -.119E-02
   0.431E-02 0.500E+00 -.266E+04   -.138E-01 -.488E+00 0.266E+04   0.224E-01 -.682E-02 0.631E+00   0.412E-03 0.246E-02 0.180E-02
   0.425E+01 0.867E+00 -.266E+04   -.420E+01 -.876E+00 0.266E+04   -.555E-01 0.136E-01 0.645E+00   0.112E-02 -.116E-02 0.264E-02
   0.156E+01 -.424E+01 -.266E+04   -.151E+01 0.422E+01 0.266E+04   -.710E-01 0.253E-01 0.675E+00   -.748E-03 0.610E-03 0.201E-02
   -.405E+01 0.109E+01 -.266E+04   0.399E+01 -.109E+01 0.266E+04   0.744E-01 -.179E-02 0.651E+00   -.212E-02 -.158E-02 0.227E-02
   -.121E+01 -.408E+01 -.266E+04   0.117E+01 0.406E+01 0.266E+04   0.609E-01 0.322E-01 0.676E+00   0.318E-04 -.351E-04 0.224E-02
   -.450E+01 0.452E+01 -.266E+04   0.442E+01 -.443E+01 0.266E+04   0.120E+00 -.117E+00 0.655E+00   -.169E-02 0.756E-03 0.160E-02
   -.197E-01 0.101E+01 -.266E+04   0.589E-02 -.100E+01 0.266E+04   0.178E-01 -.131E-01 0.670E+00   -.906E-03 -.114E-03 0.164E-02
   -.563E+00 0.902E+00 -.266E+04   0.536E+00 -.881E+00 0.266E+04   0.286E-01 -.175E-01 0.628E+00   0.334E-03 0.190E-02 0.207E-02
   0.393E+00 -.185E+01 -.266E+04   -.386E+00 0.183E+01 0.266E+04   -.132E-01 0.498E-01 0.637E+00   -.127E-03 0.508E-03 0.208E-02
   0.456E+01 0.495E+01 -.266E+04   -.449E+01 -.484E+01 0.266E+04   -.106E+00 -.142E+00 0.657E+00   0.181E-02 0.620E-03 0.222E-02
   -.539E+00 -.125E+02 -.265E+04   0.511E+00 0.133E+02 0.265E+04   0.356E-01 -.742E+00 0.200E+00   0.156E-03 -.854E-03 0.273E-02
   -.948E+01 0.570E+01 -.265E+04   0.101E+02 -.605E+01 0.265E+04   -.674E+00 0.330E+00 0.163E+00   -.468E-03 -.222E-02 0.274E-02
   -.277E+01 0.140E+01 -.265E+04   0.242E+01 -.118E+01 0.265E+04   0.350E+00 -.261E+00 0.807E+00   0.106E-02 0.289E-03 0.240E-02
   -.147E+00 -.304E+01 -.265E+04   0.143E+00 0.265E+01 0.265E+04   0.113E-02 0.395E+00 0.804E+00   0.819E-03 0.126E-02 0.193E-02
   -.910E-01 -.222E+01 -.136E+04   0.893E-01 0.230E+01 0.136E+04   0.591E-03 -.711E-01 0.552E+00   0.106E-02 -.187E-02 0.339E-02
   0.134E+01 -.152E+01 0.267E+04   -.129E+01 0.143E+01 -.267E+04   -.730E-01 0.973E-01 -.752E+00   0.107E-02 0.212E-03 -.762E-03
   -.183E+00 0.149E+00 -.134E+04   0.181E+00 -.121E+00 0.134E+04   0.148E-02 -.320E-01 0.568E+00   0.115E-02 0.821E-03 0.286E-02
   0.432E+00 -.402E+00 0.267E+04   -.440E+00 0.398E+00 -.267E+04   0.121E-01 0.328E-02 -.745E+00   0.198E-02 0.481E-03 -.105E-02
   0.675E-02 -.149E+00 0.135E+04   0.997E-02 0.128E+00 -.135E+04   -.262E-01 0.576E-03 -.549E+00   -.202E-02 0.947E-03 -.235E-02
   -.163E+00 -.580E+00 0.135E+04   0.151E+00 0.560E+00 -.135E+04   0.226E-01 0.175E-01 -.548E+00   0.399E-03 0.142E-02 -.233E-02
   0.727E-01 -.875E-02 -.134E+04   -.693E-01 0.280E-01 0.134E+04   -.912E-02 -.355E-01 0.558E+00   -.114E-02 0.441E-03 0.168E-02
   -.695E+00 -.394E+00 0.267E+04   0.729E+00 0.376E+00 -.267E+04   -.415E-01 0.168E-01 -.699E+00   -.201E-02 -.490E-03 -.972E-03
   0.886E+00 0.106E+00 0.135E+04   -.887E+00 -.840E-01 -.135E+04   0.874E-03 -.226E-01 -.554E+00   -.986E-03 -.106E-02 -.188E-02
   0.887E+01 0.539E+01 -.265E+04   -.960E+01 -.577E+01 0.265E+04   0.735E+00 0.358E+00 0.224E+00   0.146E-02 -.186E-02 0.312E-02
   -.603E-01 0.675E+00 -.124E+01   0.568E-01 -.689E+00 0.134E+01   0.224E-02 0.106E-01 -.808E-01   0.843E-03 0.106E-02 -.256E-02
   0.283E+01 0.142E+01 -.265E+04   -.249E+01 -.119E+01 0.265E+04   -.340E+00 -.249E+00 0.813E+00   -.109E-02 -.703E-03 0.226E-02
   -.869E+00 -.193E+00 0.135E+04   0.853E+00 0.186E+00 -.135E+04   0.270E-01 0.166E-01 -.538E+00   0.160E-02 -.755E-03 -.288E-02
   0.651E-01 -.801E+00 0.135E+04   -.654E-01 0.794E+00 -.135E+04   -.141E-02 0.244E-01 -.536E+00   -.126E-02 -.974E-03 -.181E-02
   0.137E-01 0.154E+00 0.390E+01   -.132E-01 -.157E+00 -.388E+01   -.126E-01 0.755E-02 -.122E-01   0.707E-03 0.108E-02 -.256E-02
   -.115E+00 0.493E+00 -.134E+04   0.914E-01 -.511E+00 0.134E+04   0.324E-01 0.149E-01 0.573E+00   -.991E-03 0.350E-03 0.934E-03
   -.183E+01 0.193E+01 -.136E+04   0.189E+01 -.196E+01 0.135E+04   -.622E-01 0.154E-01 0.577E+00   0.745E-03 0.109E-02 0.135E-02
   -.227E+00 0.927E+00 0.267E+04   0.249E+00 -.927E+00 -.267E+04   -.277E-01 -.168E-01 -.752E+00   -.175E-02 0.357E-03 -.484E-03
   0.572E+00 -.689E-01 0.267E+04   -.575E+00 0.610E-01 -.267E+04   -.165E-01 0.272E-01 -.762E+00   0.172E-02 -.483E-03 -.546E-03
   -.465E+00 0.112E+01 0.135E+04   0.466E+00 -.114E+01 -.135E+04   0.185E-01 -.181E-01 -.520E+00   0.421E-03 -.609E-03 -.273E-02
[...]
   -.140E+00 0.824E+00 0.248E+01   0.169E+00 -.793E+00 -.251E+01   -.263E-01 -.252E-01 0.415E-01   -.119E-03 0.423E-03 -.206E-02
   -.991E-01 -.465E+00 0.367E+01   0.109E+00 0.464E+00 -.362E+01   -.136E-01 0.879E-02 -.394E-01   0.204E-03 -.154E-02 -.157E-02
   0.633E+00 0.386E+00 0.135E+04   -.630E+00 -.388E+00 -.135E+04   -.121E-01 -.131E-01 -.597E+00   0.872E-03 0.117E-02 -.209E-02
   0.569E-02 -.460E+00 0.403E+01   -.801E-02 0.466E+00 -.402E+01   0.779E-03 -.163E-01 0.981E-02   0.911E-03 -.199E-03 -.213E-02
   0.711E-01 0.407E-01 -.134E+04   -.811E-01 -.158E-01 0.134E+04   0.983E-02 -.272E-01 0.569E+00   0.331E-03 0.124E-02 0.270E-02
   -.386E+00 -.576E+00 -.134E+04   0.362E+00 0.565E+00 0.134E+04   0.365E-01 0.250E-01 0.565E+00   -.368E-03 -.330E-03 0.738E-03
   -.367E+00 -.400E+00 0.267E+04   0.377E+00 0.380E+00 -.267E+04   0.497E-03 0.292E-01 -.744E+00   -.683E-03 0.980E-03 -.613E-03
   0.118E+01 0.341E+00 0.267E+04   -.114E+01 -.319E+00 -.267E+04   -.563E-01 -.307E-01 -.756E+00   0.810E-04 -.799E-03 -.450E-03
   -.658E+00 0.339E+00 0.118E+01   0.643E+00 -.398E+00 -.119E+01   0.868E-02 0.533E-01 0.170E-01   0.703E-03 0.194E-02 -.240E-02
   0.137E+01 -.115E+01 0.352E+01   -.138E+01 0.115E+01 -.352E+01   0.765E-02 0.118E-01 0.231E-01   -.110E-02 -.855E-03 -.909E-03
   -.563E+00 0.125E+00 0.136E+04   0.564E+00 -.126E+00 -.135E+04   0.245E-01 -.104E-01 -.550E+00   0.202E-03 0.318E-03 -.235E-02
   0.486E+00 -.763E+00 0.203E+01   -.443E+00 0.776E+00 -.205E+01   -.356E-01 -.940E-02 0.361E-01   0.187E-03 -.575E-03 -.160E-02
   -.516E+00 -.802E+00 0.993E+00   0.470E+00 0.815E+00 -.101E+01   0.347E-01 -.102E-01 0.322E-01   0.155E-02 -.501E-03 -.152E-02
   0.175E+00 -.111E+00 -.316E+03   -.206E+00 0.109E+00 0.318E+03   0.235E-01 -.164E-02 -.154E+01   0.496E-04 -.149E-03 0.946E-04
   -.477E-01 0.118E-01 0.399E+01   -.231E-12 -.968E-13 0.358E-11   0.280E-01 -.112E-01 -.390E+01   0.180E-03 0.130E-04 -.194E-01

 POSITION                                       TOTAL-FORCE (eV/Angst)
     13.23985      8.17798      7.28946         0.004591      0.019317      0.008778
      5.09666      8.18134      7.28104        -0.009440      0.009754      0.000742
      3.73933      5.82616      7.28284        -0.009103     -0.002777      0.008041
     13.26096      8.15881      0.33508        -0.005283      0.019270     -0.006613
      5.11298      8.16499      0.33776         0.015236     -0.023476     -0.022379
      3.75994      5.80893      0.34099        -0.008449      0.003094     -0.028067
      7.82212      1.89698      2.68782        -0.002844      0.027754     -0.018717
      9.17946      8.95119      2.68863         0.003909     -0.012737     -0.006379
      2.38055      3.47551      7.28635        -0.000067      0.021513      0.005372
      2.39734      3.45595      0.34227         0.017878      0.031003     -0.023177
     10.53697      1.89804      2.68601         0.006047      0.010070      0.010017
     13.24613      5.03851      4.98874         0.000053     -0.002168      0.009226
      3.73650      1.13043      7.28314         0.007696     -0.016969      0.016153
      9.16341      5.82850      7.29514         0.003757     -0.022088      0.037367
      5.10374      3.48058      7.29765        -0.004598      0.017155      0.001317
      3.75911      1.10540      0.34120        -0.002130      0.001533     -0.030001
      9.18634      5.80965      0.34007         0.019275      0.008159     -0.021915
      5.11389      3.46032      0.34242         0.006173     -0.010224     -0.022339
     11.89500      8.95112      2.68655        -0.015833      0.009548      0.007237
     11.88822      7.38920      4.98546         0.009301      0.005939     -0.002120
     13.25268      6.60069      2.68826         0.013387     -0.015554      0.011309
      9.18124      4.24885      2.68838        -0.026043      0.005446      0.021867
      7.81031      8.17532      7.28881         0.002177      0.006329      0.005852
      7.82892      8.15831      0.34077         0.001217      0.018776     -0.022356
     10.53847      6.60054      2.68678        -0.029929     -0.007892     -0.018524
      2.38570      0.33743      4.98190        -0.000738     -0.000842      0.028043
     14.59471      8.97267      9.64823         0.014615      0.008077     -0.029489
      3.73151      4.26975      9.64109        -0.003851      0.004442     -0.011054
      6.44903      8.97892      9.62880        -0.024413      0.000939      0.018015
     11.88429      4.27026      9.63935         0.012356     -0.002234     -0.006994
      9.16748      8.97818      9.62891         0.017794      0.007852      0.018782
     10.51913      1.91669      9.63672         0.034622     -0.020600     -0.002565
      2.37721      1.91961      9.64132         0.003186     -0.001445     -0.023445
     11.87763      8.97319      9.64828         0.001063      0.005922     -0.030019
     13.23827      6.61474      9.64592        -0.006113      0.027756     -0.014732
      5.09642      1.91853      9.63958        -0.034134     -0.028842     -0.002512
      7.80632      6.65735      9.67799         0.007568      0.031998      0.035904
      9.19811      4.25662      9.68543         0.001522     -0.027888      0.028088
      5.07057      6.63814      9.62219        -0.000410     -0.029550      0.027947
      7.80801      1.89390      9.62669        -0.001341      0.001957      0.015989
      7.81130      3.48266      7.30217         0.000445      0.010859      0.018245
      7.83361      3.45501      0.33888        -0.019971      0.013769     -0.018063
      6.45209      1.12647      7.28360         0.001945     -0.001395      0.004067
      6.47133      1.10903      0.33724         0.005110      0.000456     -0.021857
     11.89516      4.24994      2.69001        -0.011246     -0.019900      0.000359
      3.75030      4.24868      2.69210         0.010063     -0.001451      0.001083
      1.02432      1.13047      7.28143        -0.007392     -0.015867      0.017630
      1.04212      1.10534      0.33711        -0.009138     -0.001717     -0.019905
      6.46463      8.95151      2.68979        -0.001602     -0.000995     -0.015197
      6.41896      4.25706      9.68509        -0.002331     -0.025896      0.030502
      7.81603      5.03747      4.99398        -0.000015     -0.002736      0.015116
     10.54475      6.63709      9.61906        -0.000063     -0.023909      0.031287
      5.10673      1.89832      2.69082         0.012811      0.009692      0.004956
      2.39206      1.89658      2.69003        -0.002990      0.015390     -0.090254
     14.60339      7.38909      4.98639        -0.009938      0.005468     -0.001081
     11.88268      5.82624      7.28136         0.006044     -0.003087      0.006688
      6.45777      5.82860      7.29710        -0.000085     -0.023602      0.035397
     11.90328      5.81190      0.33786        -0.007032     -0.015376     -0.026867
      6.47361      5.80809      0.34072        -0.017988      0.018792     -0.023913
      7.82158      6.60008      2.69018         0.019654     -0.029638      0.009819
[...]
     10.52866      5.03769      4.98685         0.005824     -0.006856      0.010295
      6.45907      7.38849      4.98624         0.002998      0.006627      0.013501
      5.10146      0.33549      4.98773        -0.003079      0.006661      0.005126
      5.10888      6.60100      2.68955        -0.008003     -0.013040     -0.025009
      7.81537      0.33511      4.98501         0.000047     -0.007430      0.015234
      9.16858      1.12615      7.28224        -0.000410      0.001081      0.004696
     10.52356      8.18092      7.27950         0.011014      0.012274      0.002171
      9.18563      1.10733      0.33405         0.009519      0.009388     -0.018897
     10.54699      8.16248      0.33544        -0.019300     -0.008565     -0.022226
      5.10346      5.03734      4.98922        -0.005668     -0.004878      0.009157
     11.88766      2.68735      4.98436        -0.001009      0.004603      0.012909
     14.60792      8.95243      2.68762         0.025115     -0.009702      0.000893
      9.17237      2.68809      4.98719         0.008574      0.003461      0.011511
      6.45998      2.68822      4.98904        -0.009687      0.002619      0.010640
      7.81731      5.05804     10.62935        -0.006766     -0.004409     -0.011025
    total drift:                               -0.019457      0.000595      0.063823

  FREE ENERGIE OF THE ION-ELECTRON SYSTEM (eV)
  free  energy   TOTEN  =      -519.54862643 eV

  energy  without entropy=     -519.47697213  energy(sigma->0) =     -519.52474166

 d Force = 0.3096447E-02[ 0.158E-02, 0.461E-02]  d Energy = 0.4257083E-02-0.116E-02
 d Force = 0.2074830E+02[ 0.207E+02, 0.208E+02]  d Ewald  = 0.2074828E+02 0.179E-04

 Conjugate gradient step on ions:
 trial-energy change:   -0.004257  1 .order   -0.003096   -0.004609   -0.001584
  (g-gl).g = 0.391E-03      g.g   = 0.466E-02  gl.gl    = 0.134E-01
 g(Force)  = 0.466E-02   g(Stress)= 0.000E+00 ortho     = 0.340E-03
 gamma     =   0.02918
 trial     =   0.98719
 opt step  =   1.12944  (harmonic =   1.50413) maximal distance =0.00423192
 next E    =  -519.548744   (d E  =  -0.00437)

 reached required accuracy - stopping structural energy minimisation