 vasp.5.4.4.18Apr17-6-g9f103f2a35 (build Nov 30 2020 22:55:02) complex

 executed on             LinuxIFC date 2023.08.04  09:56:11

 INCAR:
 POTCAR:    PAW_PBE Pt 04Feb2005
 POTCAR:    PAW_PBE H 15Jun2001

 POTCAR:    PAW_PBE Pt 04Feb2005
   VRHFIN =Pt: s1d9

   TITEL  = PAW_PBE Pt 04Feb2005
   POMASS =  195.080; ZVAL   =   10.000    mass and valenz
   ENMAX  =  230.283; ENMIN  =  172.712 eV

 POTCAR:    PAW_PBE H 15Jun2001
   VRHFIN =H: ultrasoft test

   TITEL  = PAW_PBE H 15Jun2001
   POMASS =    1.000; ZVAL   =    1.000    mass and valenz
   ENMAX  =  250.000; ENMIN  =  200.000 eV

 Optimization of the real space projectors (new method)

 maximal supplied QI-value         = 14.36
 optimisation between [QCUT,QGAM] = [ 11.92, 23.98] = [ 39.79,161.09] Ry
 Optimized for a Real-space Cutoff    1.49 Angstroem

   l    n(q)    QCUT    max X(q) W(low)/X(q) W(high)/X(q)  e(spline)
   2     10    11.920    66.195    0.79E-04    0.18E-03    0.24E-06
   2     10    11.920    64.643    0.81E-04    0.19E-03    0.24E-06
   0     11    11.920    95.520    0.28E-04    0.54E-04    0.18E-06
   0     11    11.920    63.403    0.27E-04    0.52E-04    0.17E-06
   1     10    11.920    19.961    0.18E-04    0.11E-03    0.23E-06
   1     10    11.920    13.289    0.25E-04    0.87E-04    0.19E-06
 Optimization of the real space projectors (new method)

 maximal supplied QI-value         = 34.20
 optimisation between [QCUT,QGAM] = [ 11.97, 23.94] = [ 40.13,160.53] Ry
 Optimized for a Real-space Cutoff    1.18 Angstroem

   l    n(q)    QCUT    max X(q) W(low)/X(q) W(high)/X(q)  e(spline)
   0      8    11.971    19.460    0.15E-03    0.31E-03    0.25E-06
   0      8    11.971    12.209    0.13E-03    0.29E-03    0.25E-06
   1      8    11.971     4.655    0.22E-03    0.24E-03    0.21E-06
  PAW_PBE Pt 04Feb2005                  :
  PAW_PBE H 15Jun2001                   :

 POSCAR: Pt111\(1\1\1)\(2)
  positions in cartesian coordinates
 exchange correlation table for  LEXCH =        8
   RHO(1)=    0.500       N(1)  =     2000
   RHO(2)=  100.500       N(2)  =     4000

 ion  position               nearest neighbor table
   1  1.000  0.000  0.056-   5 2.64   9 2.64  13 2.64  29 2.64  57 2.64  37 2.64  42 2.87  14 2.87
                            54 2.87
   2  0.333  0.167  0.178-  30 2.64  26 2.64  38 2.64  42 2.64  14 2.64   6 2.64  11 2.83   7 2.86
                            15 2.87   9 2.87  21 2.87  13 2.87
   3  0.168  0.334  0.299-  15 2.62  43 2.62   7 2.63  39 2.63  27 2.65  31 2.65   8 2.81   6 2.86
                            10 2.86  14 2.87  48 2.97  12 2.97
   4  1.000  0.000  0.419-  12 2.62  60 2.64  40 2.64  32 2.64  16 2.64   8 2.64   7 2.86  63 2.87
                            27 2.88
   5  1.000  0.250  0.056-   1 2.64  45 2.64  33 2.64   9 2.64  29 2.64  25 2.64  14 2.87  10 2.87
                            18 2.87
   6  0.333  0.417  0.178-  26 2.64  62 2.64  10 2.64  34 2.64  14 2.64   2 2.64   3 2.86  15 2.86
                            43 2.86  45 2.87  49 2.87   9 2.87
   7  0.167  0.085  0.299-  15 2.63   3 2.63  27 2.64  11 2.64  63 2.65  35 2.65   2 2.86  14 2.86
                            16 2.86   4 2.86  42 2.87  12 2.95
   8  0.999  0.250  0.416-  28 2.63  32 2.63  36 2.64   4 2.64  48 2.66  12 2.66   3 2.81  31 2.82
                            27 2.83
   9  0.250  0.250  0.056-  21 2.64  13 2.64   1 2.64  49 2.64  45 2.64   5 2.64   2 2.87  14 2.87
                             6 2.87
  10  0.083  0.417  0.178-  34 2.64   6 2.64  46 2.64  14 2.64  18 2.64  22 2.64  31 2.83  39 2.86
                             3 2.86  33 2.87  45 2.87   5 2.87
  11  0.417  0.083  0.297-  47 2.63  35 2.64   7 2.64  23 2.64  19 2.65  15 2.65  24 2.83  38 2.83
                             2 2.83  30 2.83  16 2.88  20 2.91
  12  0.249  0.247  0.426-  65 1.85  16 2.62   4 2.62  24 2.66   8 2.66  52 2.69  48 2.69   7 2.95
                             3 2.97  15 2.97
  13  0.250  0.000  0.056-  21 2.64   9 2.64  17 2.64   1 2.64  37 2.64  41 2.64  38 2.87   2 2.87
                            42 2.87
  14  0.083  0.167  0.178-  42 2.64  54 2.64   6 2.64   2 2.64  10 2.64  18 2.64  27 2.83   7 2.86
                             3 2.87   5 2.87   1 2.87   9 2.87
  15  0.416  0.334  0.299-   3 2.62  43 2.62   7 2.63  55 2.63  11 2.65  19 2.65  24 2.81   6 2.86
                            26 2.86   2 2.87  52 2.97  12 2.97
  16  0.250  0.000  0.419-  12 2.62  44 2.64  40 2.64  20 2.64   4 2.64  24 2.64   7 2.86  35 2.87
                            11 2.88
  17  0.500  0.000  0.056-  29 2.64  25 2.64  13 2.64  21 2.64  41 2.64  53 2.64  58 2.87  30 2.87
                            38 2.87
  18  0.833  0.167  0.178-  54 2.64  58 2.64  22 2.64  10 2.64  30 2.64  14 2.64  27 2.83  31 2.83
                            23 2.86  25 2.87  29 2.87   5 2.87
  19  0.667  0.334  0.297-  31 2.63  59 2.64  55 2.64  23 2.64  11 2.65  15 2.65  24 2.82  22 2.83
                            26 2.83  30 2.83  64 2.88  28 2.91
  20  0.500  0.000  0.421-  56 2.63  24 2.63  16 2.64  44 2.64  32 2.64  28 2.64  23 2.88  11 2.91
                            47 2.91
  21  0.500  0.250  0.056-  25 2.64  61 2.64   9 2.64  13 2.64  49 2.64  17 2.64  30 2.87   2 2.87
                            26 2.87
  22  0.833  0.417  0.178-  50 2.64  26 2.64  30 2.64  18 2.64  46 2.64  10 2.64  19 2.83  31 2.83
                            59 2.84  61 2.87  25 2.87  33 2.87
  23  0.667  0.083  0.299-  31 2.64  19 2.64  51 2.64  47 2.64  27 2.64  11 2.64  18 2.86  30 2.86
                            58 2.86  32 2.88  20 2.88  28 2.88
  24  0.501  0.250  0.416-  28 2.63  20 2.63  64 2.64  16 2.64  52 2.66  12 2.66  15 2.81  19 2.82
                            11 2.83
  25  0.750  0.250  0.056-  17 2.64  21 2.64  29 2.64  61 2.64  33 2.64   5 2.64  18 2.87  22 2.87
                            30 2.87
  26  0.583  0.417  0.178-   6 2.64   2 2.64  22 2.64  30 2.64  62 2.64  50 2.64  19 2.83  55 2.86
                            15 2.86  49 2.87  61 2.87  21 2.87
  27  0.917  0.083  0.297-  51 2.63  63 2.64   7 2.64  23 2.64  31 2.65   3 2.65   8 2.83  54 2.83
                            14 2.83  18 2.83   4 2.88  32 2.91
  28  0.750  0.251  0.421-  24 2.63   8 2.63  64 2.64  36 2.64  20 2.64  32 2.64  23 2.88  19 2.91
                            31 2.91
  29  0.750  0.000  0.056-  17 2.64  25 2.64   5 2.64  53 2.64   1 2.64  57 2.64  54 2.87  18 2.87
                            58 2.87
  30  0.583  0.167  0.178-   2 2.64  38 2.64  58 2.64  26 2.64  22 2.64  18 2.64  11 2.83  19 2.83
                            23 2.86  21 2.87  17 2.87  25 2.87
  31  0.917  0.334  0.297-  19 2.63  59 2.64  39 2.64  23 2.64  27 2.65   3 2.65   8 2.82  22 2.83
                            10 2.83  18 2.83  36 2.88  28 2.91
  32  0.750  0.000  0.421-  56 2.63   8 2.63   4 2.64  60 2.64  20 2.64  28 2.64  23 2.88  27 2.91
                            51 2.91
  33  1.000  0.500  0.056-  37 2.64  41 2.64   5 2.64  45 2.64  25 2.64  61 2.64  10 2.87  46 2.87
                            22 2.87
  34  0.333  0.667  0.178-  62 2.64  10 2.64  58 2.64  46 2.64   6 2.64  38 2.64  47 2.83  39 2.86
                            43 2.86  41 2.87  45 2.87  53 2.87
  35  0.167  0.833  0.297-  59 2.64  63 2.64  47 2.64  11 2.64   7 2.65  39 2.65  42 2.84  38 2.84
                            46 2.84  40 2.86  44 2.87  16 2.87
  36  0.000  0.500  0.419-  48 2.62  64 2.64  40 2.64  44 2.64  28 2.64   8 2.64  39 2.86  59 2.87
                            31 2.88
  37  1.000  0.750  0.056-  33 2.64  41 2.64  61 2.64  57 2.64  13 2.64   1 2.64  46 2.87  50 2.87
                            42 2.87
  38  0.333  0.917  0.178-  58 2.64  30 2.64   2 2.64  42 2.64  34 2.64  46 2.64  47 2.83  11 2.83
                            35 2.84  13 2.87  17 2.87  41 2.87
  39  0.167  0.583  0.299-  43 2.63   3 2.63  31 2.64  47 2.64  59 2.65  35 2.65  34 2.86  10 2.86
                            36 2.86  44 2.86  46 2.87  48 2.95
  40  0.000  0.750  0.418-  36 2.64  64 2.64  16 2.64   4 2.64  44 2.64  60 2.64  63 2.86  35 2.86
                            59 2.86
  41  0.250  0.750  0.056-  45 2.64  33 2.64  37 2.64  53 2.64  17 2.64  13 2.64  34 2.87  46 2.87
                            38 2.87
  42  0.083  0.917  0.178-  14 2.64   2 2.64  38 2.64  46 2.64  50 2.64  54 2.64  63 2.84  35 2.84
                             7 2.87   1 2.87  13 2.87  37 2.87
  43  0.416  0.582  0.299-  15 2.62   3 2.62  39 2.63  55 2.63  51 2.65  47 2.65  56 2.81   6 2.86
                            62 2.86  34 2.86  52 2.97  48 2.97
  44  0.250  0.750  0.419-  48 2.62  16 2.64  40 2.64  36 2.64  20 2.64  56 2.64  39 2.86  35 2.87
                            47 2.88
  45  0.250  0.500  0.056-  41 2.64  53 2.64   5 2.64   9 2.64  49 2.64  33 2.64   6 2.87  10 2.87
                            34 2.87
  46  0.083  0.667  0.178-  34 2.64  50 2.64  10 2.64  42 2.64  22 2.64  38 2.64  59 2.84  35 2.84
                            39 2.87  37 2.87  33 2.87  41 2.87
  47  0.417  0.834  0.297-  11 2.63  35 2.64  23 2.64  39 2.64  51 2.65  43 2.65  56 2.83  38 2.83
                            58 2.83  34 2.83  44 2.88  20 2.91
  48  0.249  0.502  0.426-  65 1.86  44 2.62  36 2.62   8 2.66  56 2.66  52 2.68  12 2.69  39 2.95
                            43 2.97   3 2.97
  49  0.500  0.500  0.056-  61 2.64  53 2.64  57 2.64  21 2.64   9 2.64  45 2.64  26 2.87   6 2.87
                            62 2.87
  50  0.833  0.667  0.178-  22 2.64  46 2.64  26 2.64  42 2.64  54 2.64  62 2.64  59 2.84  63 2.84
                            55 2.87  57 2.87  61 2.87  37 2.87
  51  0.667  0.834  0.297-  27 2.63  63 2.64  23 2.64  55 2.64  47 2.65  43 2.65  56 2.83  54 2.83
                            58 2.83  62 2.83  60 2.88  32 2.91
  52  0.503  0.502  0.426-  65 1.86  60 2.62  64 2.62  24 2.66  56 2.66  48 2.68  12 2.69  55 2.95
                            43 2.97  15 2.97
  53  0.500  0.750  0.056-  49 2.64  57 2.64  45 2.64  41 2.64  29 2.64  17 2.64  62 2.87  34 2.87
                            58 2.87
  54  0.833  0.917  0.178-  18 2.64  14 2.64  50 2.64  58 2.64  42 2.64  62 2.64  51 2.83  27 2.83
                            63 2.84  29 2.87   1 2.87  57 2.87
  55  0.665  0.583  0.299-  43 2.63  15 2.63  19 2.64  51 2.64  59 2.65  63 2.65  62 2.86  26 2.86
                            64 2.86  60 2.86  50 2.87  52 2.95
  56  0.501  0.751  0.416-  32 2.63  20 2.63  60 2.64  44 2.64  52 2.66  48 2.66  43 2.81  47 2.83
                            51 2.83
  57  0.750  0.750  0.056-  61 2.64  49 2.64  53 2.64  37 2.64   1 2.64  29 2.64  50 2.87  62 2.87
                            54 2.87
  58  0.583  0.917  0.178-  38 2.64  30 2.64  18 2.64  34 2.64  62 2.64  54 2.64  47 2.83  51 2.83
                            23 2.86  17 2.87  29 2.87  53 2.87
  59  0.917  0.584  0.297-  35 2.64  63 2.64  31 2.64  19 2.64  55 2.65  39 2.65  46 2.84  50 2.84
                            22 2.84  40 2.86  36 2.87  64 2.87
  60  0.750  0.750  0.419-  52 2.62   4 2.64  40 2.64  64 2.64  32 2.64  56 2.64  55 2.86  63 2.87
                            51 2.88
  61  0.750  0.500  0.056-  49 2.64  57 2.64  21 2.64  25 2.64  37 2.64  33 2.64  22 2.87  26 2.87
[...]
      6.60003      0.76353      5.97273        -0.000401      0.010434      0.004736
      3.96921      2.28451      8.31634        -0.035371      0.002241     -0.040366
      6.59998      2.28632      1.11585        -0.001314     -0.016025     -0.013694
      3.95997      3.81053      3.55048        -0.049757      0.049319      0.016252
      9.24010      0.76036      5.93541         0.030794     -0.009464      0.028379
      6.60002      2.29091      8.41214         0.002202      0.008241     -0.025595
      7.91998      0.00001      1.11585        -0.013041      0.005595     -0.016658
      5.27997      1.52422      3.55048         0.015063     -0.008261     -0.024058
      7.91744      3.05128      5.93566        -0.003066      0.031502      0.023855
      7.92097      0.00161      8.41050         0.012590     -0.007449     -0.024024
      7.91998      4.57263      1.11585        -0.027955      0.017627      0.015357
     -0.00003      6.09683      3.55048        -0.013763     -0.068254      0.022900
     -2.64107      7.62165      5.94883         0.010417      0.010695     -0.015112
     -2.64156      4.57670      8.38309         0.021652     -0.021219     -0.031495
      6.59998      6.85894      1.11585         0.000228      0.000711     -0.077486
     -1.32003      8.38314      3.55048         0.003496      0.009924     -0.030948
     -1.30852      5.32930      5.97037         0.076523     -0.049199     -0.032861
     -3.95998      6.86131      8.36647         0.001259      0.008865     -0.012766
     -1.32002      6.85894      1.11585        -0.030339      0.014686      0.013008
     -3.96003      8.38314      3.55048         0.000728      0.048921     -0.045432
      1.32003      5.32536      5.97293         0.001830     -0.052566      0.035710
     -1.32170      6.86147      8.38336         0.028175     -0.001482     -0.031213
     -0.00002      4.57263      1.11585         0.005120     -0.003832     -0.062235
     -2.64003      6.09683      3.55048         0.037805     -0.027106     -0.049139
     -0.00274      7.62398      5.93532        -0.020295     -0.020339      0.027853
     -0.02222      4.58798      8.51803        -0.014526      0.008888      0.024577
      2.63998      4.57263      1.11585        -0.006378     -0.003934     -0.064934
      5.27997      6.09683      3.55048        -0.037484     -0.027439     -0.046413
      2.64279      7.62398      5.93532         0.019104     -0.017799      0.027062
      2.66227      4.58798      8.51803         0.014455      0.008303      0.026032
      1.31998      6.85894      1.11585         0.000227     -0.054882      0.048352
      3.95997      8.38314      3.55048        -0.007327      0.011217     -0.029660
      3.94857      5.32930      5.97037        -0.074640     -0.049797     -0.034871
      1.32002      6.87109      8.31634         0.001292     -0.027933     -0.035243
      3.95998      6.85894      1.11585         0.029671      0.012936      0.016279
      1.31997      8.38314      3.55048         0.002821      0.022481     -0.021259
      6.60003      5.33734      5.94876        -0.000066     -0.018345     -0.013263
      3.96175      6.86147      8.38336        -0.028274     -0.000695     -0.030737
      5.27998      4.57263      1.11585         0.028198      0.017718      0.013724
      2.63997      6.09683      3.55048         0.012989     -0.074008      0.024652
      5.28113      7.62165      5.94883        -0.010301      0.010084     -0.009803
      5.28161      4.57670      8.38309        -0.022511     -0.019605     -0.029199
      1.32000      3.80603      9.52319         0.000235      0.005996      0.114867
    total drift:                               -0.001904      0.004787      0.059670

  FREE ENERGIE OF THE ION-ELECTRON SYSTEM (eV)
  free  energy   TOTEN  =      -408.91120765 eV

  energy  without entropy=     -408.91120765  energy(sigma->0) =     -408.91120765

 d Force =-0.7533302E-03[-0.345E-02, 0.194E-02]  d Energy =-0.4942234E-03-0.259E-03
 d Force =-0.8838909E+01[-0.884E+01,-0.883E+01]  d Ewald  =-0.8839154E+01 0.245E-03

 Finite differences progress:
  Degree of freedom:   3/  3
  Displacement:        2/  2
  Total:               6/  6

 SECOND DERIVATIVES (NOT SYMMETRIZED)
              65X         65Y         65Z
 65X    -0.840846   -0.000797   -0.004240
 65Y    -0.001861   -0.953840   -0.090734
 65Z    -0.000092   -0.110054   -5.983744

 Eigenvectors and eigenvalues of the dynamical matrix

   1 f  =   38.248105 THz   240.319933 2PiTHz 1275.819424 cm-1   158.181505 meV
             X         Y         Z           dx          dy          dz
     10.559976  0.000014  1.115846            0           0           0
      2.639975  1.524219  3.550479            0           0           0
      0.009245  3.054810  5.972614            0           0           0
     10.559837  0.000171  8.384719            0           0           0
      9.239976  2.286321  1.115846            0           0           0
      1.319975  3.810527  3.550479            0           0           0
      1.320025  0.776544  5.971377            0           0           0
      9.230837  2.284508  8.316342            0           0           0
      1.319975  2.286321  1.115846            0           0           0
     -1.320026  3.810527  3.550479            0           0           0
      3.959951  0.760359  5.935407            0           0           0
      1.320025  2.262302  8.521443            0           0           0
      2.639975  0.000014  1.115846            0           0           0
     -0.000025  1.524219  3.550479            0           0           0
      2.630805  3.054810  5.972614            0           0           0
      2.640213  0.000171  8.384719            0           0           0
      5.279976  0.000014  1.115846            0           0           0
      7.919974  1.524219  3.550479            0           0           0
      5.282612  3.051280  5.935663            0           0           0
      5.279076  0.001606  8.410505            0           0           0
      3.959975  2.286321  1.115846            0           0           0
      6.599974  3.810527  3.550479            0           0           0
      6.600026  0.763527  5.972727            0           0           0
      3.969213  2.284508  8.316342            0           0           0
      6.599975  2.286321  1.115846            0           0           0
      3.959974  3.810527  3.550479            0           0           0
      9.240101  0.760359  5.935407            0           0           0
      6.600025  2.290909  8.412141            0           0           0
      7.919975  0.000014  1.115846            0           0           0
      5.279974  1.524219  3.550479            0           0           0
      7.917439  3.051280  5.935663            0           0           0
      7.920974  0.001606  8.410505            0           0           0
      7.919976  4.572628  1.115846            0           0           0
     -0.000026  6.096834  3.550479            0           0           0
     -2.641075  7.621647  5.948827            0           0           0
     -2.641556  4.576701  8.383095            0           0           0
      6.599976  6.858935  1.115846            0           0           0
     -1.320026  8.383141  3.550479            0           0           0
     -1.308516  5.329300  5.970367            0           0           0
     -3.959975  6.861312  8.366465            0           0           0
     -1.320025  6.858935  1.115846            0           0           0
     -3.960026  8.383141  3.550479            0           0           0
      1.320026  5.325359  5.972929            0           0           0
     -1.321703  6.861474  8.383361            0           0           0
     -0.000025  4.572628  1.115846            0           0           0
     -2.640026  6.096834  3.550479            0           0           0
     -0.002737  7.623979  5.935322            0           0           0
     -0.022219  4.587978  8.518030            0           0           0
      2.639975  4.572628  1.115846            0           0           0
      5.279975  6.096834  3.550479            0           0           0
      2.642789  7.623979  5.935322            0           0           0
      2.662268  4.587978  8.518030            0           0           0
      1.319976  6.858935  1.115846            0           0           0
      3.959974  8.383141  3.550479            0           0           0
      3.948567  5.329300  5.970367            0           0           0
      1.320025  6.871092  8.316339            0           0           0
      3.959975  6.858935  1.115846            0           0           0
      1.319974  8.383141  3.550479            0           0           0
      6.600026  5.337335  5.948762            0           0           0
      3.961752  6.861474  8.383361            0           0           0
      5.279975  4.572628  1.115846            0           0           0
      2.639974  6.096834  3.550479            0           0           0
      5.281126  7.621647  5.948827            0           0           0
      5.281605  4.576701  8.383095            0           0           0
      1.320000  3.806030  9.538186     0.000426    0.019948    0.999801

[...]

   3 f  =   14.335236 THz    90.070947 2PiTHz  478.172001 cm-1    59.285794 meV
             X         Y         Z           dx          dy          dz
     10.559976  0.000014  1.115846            0           0           0
      2.639975  1.524219  3.550479            0           0           0
      0.009245  3.054810  5.972614            0           0           0
     10.559837  0.000171  8.384719            0           0           0
      9.239976  2.286321  1.115846            0           0           0
      1.319975  3.810527  3.550479            0           0           0
      1.320025  0.776544  5.971377            0           0           0
      9.230837  2.284508  8.316342            0           0           0
      1.319975  2.286321  1.115846            0           0           0
     -1.320026  3.810527  3.550479            0           0           0
      3.959951  0.760359  5.935407            0           0           0
      1.320025  2.262302  8.521443            0           0           0
      2.639975  0.000014  1.115846            0           0           0
     -0.000025  1.524219  3.550479            0           0           0
      2.630805  3.054810  5.972614            0           0           0
      2.640213  0.000171  8.384719            0           0           0
      5.279976  0.000014  1.115846            0           0           0
      7.919974  1.524219  3.550479            0           0           0
      5.282612  3.051280  5.935663            0           0           0
      5.279076  0.001606  8.410505            0           0           0
      3.959975  2.286321  1.115846            0           0           0
      6.599974  3.810527  3.550479            0           0           0
      6.600026  0.763527  5.972727            0           0           0
      3.969213  2.284508  8.316342            0           0           0
      6.599975  2.286321  1.115846            0           0           0
      3.959974  3.810527  3.550479            0           0           0
      9.240101  0.760359  5.935407            0           0           0
      6.600025  2.290909  8.412141            0           0           0
      7.919975  0.000014  1.115846            0           0           0
      5.279974  1.524219  3.550479            0           0           0
      7.917439  3.051280  5.935663            0           0           0
      7.920974  0.001606  8.410505            0           0           0
      7.919976  4.572628  1.115846            0           0           0
     -0.000026  6.096834  3.550479            0           0           0
     -2.641075  7.621647  5.948827            0           0           0
     -2.641556  4.576701  8.383095            0           0           0
      6.599976  6.858935  1.115846            0           0           0
     -1.320026  8.383141  3.550479            0           0           0
     -1.308516  5.329300  5.970367            0           0           0
     -3.959975  6.861312  8.366465            0           0           0
     -1.320025  6.858935  1.115846            0           0           0
     -3.960026  8.383141  3.550479            0           0           0
      1.320026  5.325359  5.972929            0           0           0
     -1.321703  6.861474  8.383361            0           0           0
     -0.000025  4.572628  1.115846            0           0           0
     -2.640026  6.096834  3.550479            0           0           0
     -0.002737  7.623979  5.935322            0           0           0
     -0.022219  4.587978  8.518030            0           0           0
      2.639975  4.572628  1.115846            0           0           0
      5.279975  6.096834  3.550479            0           0           0
      2.642789  7.623979  5.935322            0           0           0
      2.662268  4.587978  8.518030            0           0           0
      1.319976  6.858935  1.115846            0           0           0
      3.959974  8.383141  3.550479            0           0           0
      3.948567  5.329300  5.970367            0           0           0
      1.320025  6.871092  8.316339            0           0           0
      3.959975  6.858935  1.115846            0           0           0
      1.319974  8.383141  3.550479            0           0           0
      6.600026  5.337335  5.948762            0           0           0
      3.961752  6.861474  8.383361            0           0           0
      5.279975  4.572628  1.115846            0           0           0
      2.639974  6.096834  3.550479            0           0           0
      5.281126  7.621647  5.948827            0           0           0
      5.281605  4.576701  8.383095            0           0           0
      1.320000  3.806030  9.538186     0.999933   -0.011586   -0.000195

 Finite differences POTIM=  1.500000000000000E-002
  LATTYP: Found a hexagonal cell.
 ALAT       =    10.5600004196
 C/A-ratio  =     1.8939393187

  Lattice vectors:

 A1 = (  10.5600004196,   0.0000000000,   0.0000000000)
 A2 = (  -5.2800002098,   9.1452286274,   0.0000000000)
 A3 = (   0.0000000000,   0.0000000000,  20.0000000000)

Analysis of symmetry for initial positions (statically):
 Subroutine PRICEL returns:
 Original cell was already a primitive cell.

[...]

The static configuration has the point symmetry C_1 .

Analysis of symmetry for dynamics (positions and initial velocities):
 Subroutine PRICEL returns:
 Original cell was already a primitive cell.

[...]

The dynamic configuration has the point symmetry C_1 .

Analysis of constrained symmetry for selective dynamics:
 Subroutine PRICEL returns:
 Original cell was already a primitive cell.

[...]

The constrained configuration has the point symmetry C_1 .

Analysis of structural, dynamic, and magnetic symmetry:
 Subroutine PRICEL returns:
 Original cell was already a primitive cell.

 Routine SETGRP: Setting up the symmetry group for a
 hexagonal supercell.

 Subroutine GETGRP returns: Found  1 space group operations
 (whereof  1 operations were pure point group operations)
 out of a pool of 24 trial point group operations.

The magnetic configuration has the point symmetry C_1 .

 Subroutine INISYM returns: Found  1 space group operations
 (whereof  1 operations are pure point group operations),
 and found     1 'primitive' translations

 KPOINTS: mesh auto

Automatic generation of k-mesh.
Space group operators:
 irot       det(A)        alpha          n_x          n_y          n_z        tau_x        tau_y        tau_z
    1     1.000000     0.000000     1.000000     0.000000     0.000000     0.000000     0.000000     0.000000

 Subroutine IBZKPT returns following result:

 Found      4 irreducible k-points:

 Following reciprocal coordinates:
            Coordinates               Weight
  0.000000  0.000000  0.000000      1.000000
  0.500000 -0.000000  0.000000      1.000000
  0.000000  0.500000  0.000000      1.000000
  0.500000  0.500000  0.000000      1.000000

 Following cartesian coordinates:
            Coordinates               Weight
  0.000000  0.000000  0.000000      1.000000
  0.047348  0.027337  0.000000      1.000000
  0.000000  0.054673  0.000000      1.000000
  0.047348  0.082010  0.000000      1.000000

 TETIRR: Found     12 inequivalent tetrahedra from       24
 BZINTS: Fermi energy:  2.703206;641.000000 electrons
         Band energy:-513.729472;  BLOECHL correction: -0.114779