 vasp.5.4.4.18Apr17-6-g9f103f2a35 (build Nov 30 2020 22:55:02) complex

 executed on             LinuxIFC date 2023.08.04  12:51:27

 INCAR:
 POTCAR:    PAW_PBE Pt 04Feb2005
 POTCAR:    PAW_PBE Cu 22Jun2005
 POTCAR:    PAW_PBE Ni 02Aug2007
 POTCAR:    PAW_PBE Fe 06Sep2000
 POTCAR:    PAW_PBE Co 02Aug2007
 POTCAR:    PAW_PBE H 15Jun2001

 POTCAR:    PAW_PBE Pt 04Feb2005
   VRHFIN =Pt: s1d9

   TITEL  = PAW_PBE Pt 04Feb2005
   POMASS =  195.080; ZVAL   =   10.000    mass and valenz
   ENMAX  =  230.283; ENMIN  =  172.712 eV

 POTCAR:    PAW_PBE Cu 22Jun2005
   VRHFIN =Cu: d10 p1

   TITEL  = PAW_PBE Cu 22Jun2005
   POMASS =   63.546; ZVAL   =   11.000    mass and valenz
   ENMAX  =  295.446; ENMIN  =  221.585 eV

 POTCAR:    PAW_PBE Ni 02Aug2007
   VRHFIN =Ni:

   TITEL  = PAW_PBE Ni 02Aug2007
   POMASS =   58.690; ZVAL   =   10.000    mass and valenz
   ENMAX  =  269.532; ENMIN  =  202.149 eV

 POTCAR:    PAW_PBE Fe 06Sep2000
   VRHFIN =Fe:  d7 s1

   TITEL  = PAW_PBE Fe 06Sep2000
   POMASS =   55.847; ZVAL   =    8.000    mass and valenz
   ENMAX  =  267.882; ENMIN  =  200.911 eV

 POTCAR:    PAW_PBE Co 02Aug2007
   VRHFIN =Co: d8 s1

   TITEL  = PAW_PBE Co 02Aug2007
   POMASS =   58.933; ZVAL   =    9.000    mass and valenz
   ENMAX  =  267.968; ENMIN  =  200.976 eV

 POTCAR:    PAW_PBE H 15Jun2001
   VRHFIN =H: ultrasoft test

   TITEL  = PAW_PBE H 15Jun2001
   POMASS =    1.000; ZVAL   =    1.000    mass and valenz
   ENMAX  =  250.000; ENMIN  =  200.000 eV

 Optimization of the real space projectors (new method)

 maximal supplied QI-value         = 14.36
 optimisation between [QCUT,QGAM] = [ 11.92, 23.98] = [ 39.79,161.09] Ry
 Optimized for a Real-space Cutoff    1.49 Angstroem

   l    n(q)    QCUT    max X(q) W(low)/X(q) W(high)/X(q)  e(spline)
   2     10    11.920    66.195    0.79E-04    0.18E-03    0.24E-06
   2     10    11.920    64.643    0.81E-04    0.19E-03    0.24E-06
   0     11    11.920    95.520    0.28E-04    0.54E-04    0.18E-06
   0     11    11.920    63.403    0.27E-04    0.52E-04    0.17E-06
   1     10    11.920    19.961    0.18E-04    0.11E-03    0.23E-06
   1     10    11.920    13.289    0.25E-04    0.87E-04    0.19E-06
 Optimization of the real space projectors (new method)

[...]

   l    n(q)    QCUT    max X(q) W(low)/X(q) W(high)/X(q)  e(spline)
   2      9    11.864    65.824    0.22E-03    0.53E-03    0.26E-06
   2      9    11.864    61.429    0.22E-03    0.53E-03    0.26E-06
   0      9    11.864    56.174    0.21E-03    0.32E-04    0.15E-06
   0      9    11.864    31.263    0.19E-03    0.30E-04    0.14E-06
   1      9    11.864    19.828    0.63E-04    0.30E-03    0.16E-06
   1      9    11.864    15.139    0.49E-04    0.25E-03    0.13E-06
 Optimization of the real space projectors (new method)

 maximal supplied QI-value         = 34.20
 optimisation between [QCUT,QGAM] = [ 11.97, 23.94] = [ 40.13,160.53] Ry
 Optimized for a Real-space Cutoff    1.18 Angstroem

   l    n(q)    QCUT    max X(q) W(low)/X(q) W(high)/X(q)  e(spline)
   0      8    11.971    19.460    0.15E-03    0.31E-03    0.25E-06
   0      8    11.971    12.209    0.13E-03    0.29E-03    0.25E-06
   1      8    11.971     4.655    0.22E-03    0.24E-03    0.21E-06
  PAW_PBE Pt 04Feb2005                  :
  PAW_PBE Cu 22Jun2005                  :
  PAW_PBE Ni 02Aug2007                  :
  PAW_PBE Fe 06Sep2000                  :
  PAW_PBE Co 02Aug2007                  :
  PAW_PBE H 15Jun2001                   :

 POSCAR: 10.56
  positions in cartesian coordinates
 exchange correlation table for  LEXCH =        8
   RHO(1)=    0.500       N(1)  =     2000
   RHO(2)=  100.500       N(2)  =     4000

 ion  position               nearest neighbor table
   1  0.789  0.877  0.317-  49 2.57  59 2.58  19 2.62  61 2.66  60 2.66  33 2.67  29 2.67  28 2.71
                             2 2.72   4 2.81  12 2.85  11 2.89
   2  0.044  0.881  0.316-  79 2.55  77 2.57  60 2.61  30 2.64  22 2.65  28 2.66  52 2.68   1 2.72
                            33 2.73   6 2.75   4 2.82  16 2.88
   3  0.288  0.377  0.320-  64 2.58  39 2.60  33 2.60  68 2.64  31 2.65  19 2.68  43 2.71  30 2.71
                            18 2.78   5 2.78  13 2.79  25 2.83
   4  0.877  0.957  0.424-  16 2.63  11 2.64  17 2.64  12 2.65   9 2.66   6 2.67  60 2.70   1 2.81
                             2 2.82
   5  0.127  0.457  0.428-  13 2.61  12 2.61  10 2.63   7 2.63  16 2.65  25 2.65   3 2.78  39 2.79
                            33 2.80
   6  0.129  0.958  0.421-   8 2.60  10 2.63  14 2.63   9 2.66  16 2.66   4 2.67   2 2.75  52 2.78
                            22 2.87
   7  0.878  0.457  0.423-  10 2.63   9 2.63  12 2.63   5 2.63  15 2.64  27 2.64  39 2.70  29 2.74
                            75 2.76
   8  0.376  0.957  0.423-  81 1.85   6 2.60  14 2.63  10 2.64  27 2.65  13 2.67  11 2.67  43 2.70
                            61 2.74  52 2.74
   9  0.877  0.209  0.422-   7 2.63  17 2.63  15 2.64  10 2.64  60 2.64   4 2.66   6 2.66  75 2.70
                            22 2.82
  10  0.127  0.209  0.422-   7 2.63   6 2.63   5 2.63  13 2.63   9 2.64   8 2.64  43 2.72  39 2.73
                            22 2.82
  11  0.628  0.957  0.430-  81 1.69   4 2.64  17 2.66  12 2.66  27 2.66   8 2.67  13 2.68   1 2.89
                            61 2.92  19 2.94
  12  0.880  0.705  0.425-   5 2.61  16 2.63   7 2.63   4 2.65  11 2.66  27 2.67  33 2.73  29 2.82
                             1 2.85
  13  0.375  0.210  0.426-   5 2.61  10 2.63  25 2.64  17 2.67   8 2.67  11 2.68   3 2.79  43 2.82
                            19 2.86
  14  0.377  0.708  0.426-  27 2.62   8 2.63  25 2.63   6 2.63  15 2.64  16 2.64  44 2.77  30 2.78
                            52 2.86
  15  0.627  0.459  0.424-  27 2.61   9 2.64  14 2.64   7 2.64  17 2.64  25 2.64  44 2.77  18 2.77
                            75 2.79
  16  0.127  0.708  0.425-  12 2.63  25 2.63   4 2.63  14 2.64   5 2.65   6 2.66  33 2.77  30 2.78
                             2 2.88
  17  0.628  0.208  0.425-   9 2.63  15 2.64   4 2.64  25 2.65  11 2.66  13 2.67  60 2.70  18 2.79
                            19 2.90
  18  0.555  0.370  0.318-  67 2.53  75 2.55  60 2.56  68 2.60  44 2.68  26 2.68  19 2.72  30 2.76
                            15 2.77   3 2.78  17 2.79  25 2.91
  19  0.538  0.121  0.316-  59 2.55  80 2.55  68 2.56  43 2.60  61 2.61   1 2.62   3 2.68  18 2.72
                            60 2.74  13 2.86  17 2.90  11 2.94
  20  0.547  0.122  0.038-  57 2.54  37 2.59  48 2.60  62 2.60  47 2.60  34 2.65  45 2.68  63 2.71
                            56 2.75
  21  0.124  0.462  0.127-  36 2.55  47 2.57  40 2.58  58 2.61  42 2.61  64 2.63  31 2.66  69 2.66
                            50 2.67  74 2.69  70 2.69  57 2.69
  22  0.041  0.134  0.313-  65 2.47  55 2.54  75 2.54  77 2.57  39 2.59  43 2.59  60 2.65   2 2.65
                            52 2.74  10 2.82   9 2.82   6 2.87
  23  0.032  0.135  0.034-  70 2.57  62 2.59  40 2.59  41 2.60  76 2.63  45 2.70  24 2.70  35 2.71
                            53 2.86
  24  0.127  0.955  0.132-  79 2.52  55 2.55  53 2.61  35 2.62  77 2.62  58 2.62  73 2.64  70 2.65
                            38 2.67  66 2.68  23 2.70  41 2.74
  25  0.377  0.459  0.427-  14 2.63  16 2.63  13 2.64  15 2.64   5 2.65  17 2.65   3 2.83  30 2.85
                            18 2.91
  26  0.458  0.546  0.220-  73 2.50  74 2.51  51 2.53  79 2.60  64 2.61  30 2.65  68 2.66  18 2.68
                            44 2.69  32 2.69  78 2.71  67 2.74
  27  0.626  0.706  0.422-  15 2.61  14 2.62   7 2.64   8 2.65  11 2.66  12 2.67  44 2.67  29 2.73
                            61 2.74
  28  0.964  0.793  0.218-  66 2.54  50 2.56  58 2.58  77 2.63  42 2.64  64 2.65   2 2.66  79 2.68
                            59 2.70   1 2.71  33 2.75  49 2.75
  29  0.791  0.622  0.319-  42 2.58  32 2.60  44 2.61  39 2.61  75 2.64  49 2.65  33 2.65  61 2.65
                             1 2.67  27 2.73   7 2.74  12 2.82
  30  0.294  0.631  0.319-  79 2.56  64 2.60  44 2.60  52 2.62   2 2.64  26 2.65  33 2.70   3 2.71
                            18 2.76  14 2.78  16 2.78  25 2.85
  31  0.211  0.284  0.223-  57 2.55  70 2.55  65 2.59  55 2.61  43 2.63  80 2.64   3 2.65  39 2.66
                            21 2.66  68 2.67  42 2.71  64 2.72
  32  0.717  0.537  0.221-  69 2.51  54 2.56  51 2.57  65 2.60  29 2.60  42 2.61  67 2.64  75 2.65
                            49 2.68  26 2.69  44 2.73  78 2.78
  33  0.041  0.624  0.321-  42 2.57  39 2.59   3 2.60  64 2.64  29 2.65   1 2.67  30 2.70   2 2.73
                            12 2.73  28 2.75  16 2.77   5 2.80
  34  0.797  0.870  0.037-  50 2.48  66 2.50  36 2.54  48 2.61  35 2.62  63 2.64  71 2.65  20 2.65
                            62 2.72
  35  0.044  0.872  0.035-  58 2.56  36 2.57  66 2.61  24 2.62  34 2.62  72 2.70  23 2.71  62 2.72
                            53 2.74
  36  0.039  0.631  0.035-  58 2.54  34 2.54  21 2.55  35 2.57  50 2.59  40 2.68  71 2.72  72 2.76
                            47 2.78
  37  0.626  0.214  0.133-  68 2.52  59 2.52  67 2.52  41 2.56  51 2.57  56 2.58  66 2.59  20 2.59
                            74 2.60  62 2.60  57 2.64  48 2.76
  38  0.376  0.961  0.131-  80 2.47  53 2.51  55 2.53  78 2.53  63 2.53  45 2.55  54 2.58  48 2.61
                            57 2.62  24 2.67  70 2.69  73 2.69
  39  0.041  0.379  0.320-  22 2.59  33 2.59   3 2.60  42 2.60  29 2.61  75 2.63  31 2.66  65 2.66
                             7 2.70  43 2.71  10 2.73   5 2.79
  40  0.040  0.377  0.033-  69 2.55  21 2.58  23 2.59  76 2.61  70 2.61  45 2.66  71 2.67  36 2.68
                            47 2.81
  41  0.868  0.215  0.131-  67 2.47  65 2.53  76 2.53  77 2.53  37 2.56  51 2.56  62 2.57  69 2.59
                            23 2.60  70 2.61  66 2.63  24 2.74
  42  0.960  0.545  0.225-  33 2.57  29 2.58  39 2.60  50 2.61  32 2.61  21 2.61  28 2.64  64 2.65
                            69 2.68  65 2.69  49 2.70  31 2.71
  43  0.294  0.118  0.320-  52 2.52  55 2.58  61 2.59  22 2.59  19 2.60  31 2.63  80 2.66   8 2.70
                             3 2.71  39 2.71  10 2.72  13 2.82
  44  0.541  0.630  0.321-  61 2.56  52 2.56  30 2.60  29 2.61  78 2.63  27 2.67  18 2.68  26 2.69
                            75 2.73  32 2.73  14 2.77  15 2.77
  45  0.292  0.126  0.037-  38 2.55  57 2.57  70 2.59  40 2.66  53 2.66  20 2.68  23 2.70  47 2.70
                            63 2.74
  46  0.545  0.626  0.042-  73 2.43  51 2.44  54 2.47  71 2.53  53 2.54  76 2.54  63 2.55  72 2.56
                            56 2.56
  47  0.307  0.374  0.039-  74 2.45  57 2.52  56 2.54  21 2.57  20 2.60  72 2.62  45 2.70  36 2.78
                            40 2.81
  48  0.628  0.952  0.133-  49 2.43  80 2.48  59 2.50  63 2.52  50 2.54  54 2.54  20 2.60  34 2.61
                            66 2.61  38 2.61  57 2.66  37 2.76
  49  0.701  0.798  0.223-  48 2.43  54 2.51  80 2.51  78 2.56  50 2.57   1 2.57  61 2.58  59 2.60
                            29 2.65  32 2.68  42 2.70  28 2.75
  50  0.866  0.710  0.128-  71 2.42  34 2.48  48 2.54  28 2.56  49 2.57  54 2.58  36 2.59  42 2.61
                            69 2.64  21 2.67  66 2.71  58 2.84
[...]
     12.89980      6.49745      2.82364         0.006701     -0.128185      0.097178
      9.01343      4.18612      2.81919         0.017391      0.006676      0.037077
      7.80061      8.00567      6.97080         0.007281     -0.018970     -0.028848
      7.81053      7.92859      0.86888        -0.034733      0.065187     -0.000985
     10.31657      6.54831      2.89472        -0.010743     -0.127223      0.069401
      2.46166      0.31661      4.92733         0.066089     -0.005342      0.038719
      7.75154      3.52543      0.86333         0.032638      0.018402      0.011188
      5.10291      1.89984      2.87069        -0.046202      0.121965      0.123276
      5.17349      6.40557      2.77226         0.014685      0.065464      0.093434
      7.65418      0.39388      4.89233        -0.031719     -0.079418      0.022550
      9.05535      1.14986      7.11406         0.003075     -0.006154      0.018733
[...]
      9.09183      2.62352      4.93970         0.052216     -0.017397      0.083641
      6.39598      2.67997      4.92292        -0.025933     -0.091451     -0.000679
     11.64052      4.17844      2.78900         0.071199      0.032267     -0.008233
      2.34972      1.92500      2.86197         0.043879      0.068041     -0.004428
     11.59075      5.72177      0.94802        -0.019320     -0.441156      0.108279
      6.50379      5.69604      0.91052        -0.015605     -0.033503      0.037347
      7.71278      6.45493      2.81038        -0.010916     -0.054998      0.101005
      6.43155      4.20716      2.83788        -0.022045     -0.001329     -0.022172
     10.36155      3.37848      7.01145        -0.009308     -0.036381     -0.052469
     10.36553      3.54396      0.90454        -0.027958      0.040293     -0.065338
     10.23662      0.46679      4.91587        -0.047150      0.193150      0.123991
      9.06408      7.34028      4.95059         0.006028      0.003327      0.020296
      6.48344      7.27349      4.94428         0.121323     -0.059377      0.014407
      5.04827      0.31035      4.87551         0.080367     -0.022943      0.037928
     10.39182      8.78065     10.53531        -0.017132      0.041117      0.134096
    total drift:                                0.015808      0.001262      0.001352

  FREE ENERGIE OF THE ION-ELECTRON SYSTEM (eV)
  free  energy   TOTEN  =      -513.48499044 eV

  energy  without entropy=     -513.48499044  energy(sigma->0) =     -513.48499044

 d Force =-0.5967719E-03[-0.402E-02, 0.283E-02]  d Energy =-0.4728980E-03-0.124E-03
 d Force =-0.1051425E+02[-0.105E+02,-0.105E+02]  d Ewald  =-0.1051444E+02 0.186E-03

 Finite differences progress:
  Degree of freedom:   3/  3
  Displacement:        2/  2
  Total:               6/  6

 SECOND DERIVATIVES (NOT SYMMETRIZED)
              81X         81Y         81Z
 81X    -2.902101    0.048888    2.902536
 81Y     0.014984   -0.184078   -0.080490
 81Z     2.893928   -0.091123   -7.613584

 Eigenvectors and eigenvalues of the dynamical matrix

   1 f  =   46.883381 THz   294.576970 2PiTHz 1563.861204 cm-1   193.894147 meV
             X         Y         Z           dx          dy          dz
     12.961562  8.018341  6.973173            0           0           0
      5.116476  8.058229  6.952406            0           0           0
      5.029486  3.450772  7.042045            0           0           0
     14.319500  8.752280  9.324165            0           0           0
      3.751262  4.181710  9.405891            0           0           0
      6.425904  8.763952  9.266079            0           0           0
     11.683431  4.181083  9.298557            0           0           0
      9.021606  8.755246  9.311795            0           0           0
     10.361203  1.911296  9.281037            0           0           0
      2.438050  1.907252  9.292043            0           0           0
     11.684762  8.751158  9.464466            0           0           0
     13.011229  6.449627  9.355593            0           0           0
      5.065434  1.923459  9.380022            0           0           0
      7.718089  6.473543  9.382406            0           0           0
      9.044351  4.193449  9.335802            0           0           0
      5.079750  6.472302  9.351459            0           0           0
      7.730916  1.902899  9.344958            0           0           0
      7.810481  3.383713  6.987105            0           0           0
      6.317565  1.105650  6.942331            0           0           0
      6.427482  1.119509  0.843789            0           0           0
      3.744575  4.224976  2.802947            0           0           0
      1.137465  1.224849  6.889696            0           0           0
      1.053506  1.233006  0.757137            0           0           0
      6.379696  8.732318  2.895796            0           0           0
      6.401921  4.197924  9.396855            0           0           0
      7.715193  4.989863  4.841883            0           0           0
     10.340929  6.459537  9.283753            0           0           0
     14.366899  7.249662  4.787507            0           0           0
     11.641277  5.692591  7.008131            0           0           0
      6.432505  5.770071  7.021504            0           0           0
      3.728800  2.594869  4.899318            0           0           0
     10.407142  4.909645  4.852938            0           0           0
      3.732503  5.707520  7.059261            0           0           0
     13.010760  7.954144  0.822852            0           0           0
      5.070618  7.976644  0.759159            0           0           0
      3.747252  5.772328  0.772685            0           0           0
      7.739055  1.959228  2.918920            0           0           0
      9.045754  8.788967  2.872263            0           0           0
      2.433580  3.462691  7.048415            0           0           0
      2.407877  3.445951  0.736756            0           0           0
     10.298420  1.968233  2.881385            0           0           0
     13.013514  4.988054  4.944101            0           0           0
      3.722457  1.076209  7.047329            0           0           0
      9.036817  5.762887  7.057472            0           0           0
      3.746828  1.152850  0.819592            0           0           0
      9.065133  5.724714  0.925373            0           0           0
      5.212120  3.416365  0.860857            0           0           0
     11.656252  8.704956  2.917869            0           0           0
     11.621509  7.299740  4.901783            0           0           0
     12.899801  6.497445  2.823641            0           0           0
      9.013433  4.186125  2.819185            0           0           0
      7.800611  8.005670  6.970801            0           0           0
      7.810527  7.928589  0.868881            0           0           0
     10.316566  6.548306  2.894722            0           0           0
      2.461657  0.316610  4.927330            0           0           0
      7.751538  3.525426  0.863327            0           0           0
      5.102914  1.899843  2.870690            0           0           0
      5.173495  6.405568  2.772261            0           0           0
      7.654181  0.393883  4.892331            0           0           0
      9.055351  1.149861  7.114059            0           0           0
[...]
      9.091830  2.623519  4.939700            0           0           0
      6.395982  2.679971  4.922922            0           0           0
     11.640522  4.178437  2.789004            0           0           0
      2.349716  1.924995  2.861968            0           0           0
     11.590753  5.721772  0.948016            0           0           0
      6.503789  5.696041  0.910522            0           0           0
      7.712777  6.454929  2.810380            0           0           0
      6.431551  4.207157  2.837884            0           0           0
     10.361545  3.378482  7.011446            0           0           0
     10.365531  3.543965  0.904545            0           0           0
     10.236619  0.466792  4.915867            0           0           0
      9.064077  7.340275  4.950593            0           0           0
      6.483441  7.273487  4.944283            0           0           0
      5.048274  0.310346  4.875506            0           0           0
     10.391823  8.780649 10.550315    -0.429652    0.010352    0.902935

[...]

   3 f  =    6.689261 THz    42.029868 2PiTHz  223.129731 cm-1    27.664571 meV
             X         Y         Z           dx          dy          dz
     12.961562  8.018341  6.973173            0           0           0
      5.116476  8.058229  6.952406            0           0           0
      5.029486  3.450772  7.042045            0           0           0
     14.319500  8.752280  9.324165            0           0           0
      3.751262  4.181710  9.405891            0           0           0
      6.425904  8.763952  9.266079            0           0           0
     11.683431  4.181083  9.298557            0           0           0
      9.021606  8.755246  9.311795            0           0           0
     10.361203  1.911296  9.281037            0           0           0
      2.438050  1.907252  9.292043            0           0           0
     11.684762  8.751158  9.464466            0           0           0
     13.011229  6.449627  9.355593            0           0           0
      5.065434  1.923459  9.380022            0           0           0
      7.718089  6.473543  9.382406            0           0           0
      9.044351  4.193449  9.335802            0           0           0
      5.079750  6.472302  9.351459            0           0           0
      7.730916  1.902899  9.344958            0           0           0
      7.810481  3.383713  6.987105            0           0           0
      6.317565  1.105650  6.942331            0           0           0
      6.427482  1.119509  0.843789            0           0           0
      3.744575  4.224976  2.802947            0           0           0
      1.137465  1.224849  6.889696            0           0           0
      1.053506  1.233006  0.757137            0           0           0
      6.379696  8.732318  2.895796            0           0           0
      6.401921  4.197924  9.396855            0           0           0
      7.715193  4.989863  4.841883            0           0           0
     10.340929  6.459537  9.283753            0           0           0
     14.366899  7.249662  4.787507            0           0           0
     11.641277  5.692591  7.008131            0           0           0
      6.432505  5.770071  7.021504            0           0           0
      3.728800  2.594869  4.899318            0           0           0
     10.407142  4.909645  4.852938            0           0           0
      3.732503  5.707520  7.059261            0           0           0
     13.010760  7.954144  0.822852            0           0           0
      5.070618  7.976644  0.759159            0           0           0
      3.747252  5.772328  0.772685            0           0           0
      7.739055  1.959228  2.918920            0           0           0
      9.045754  8.788967  2.872263            0           0           0
      2.433580  3.462691  7.048415            0           0           0
      2.407877  3.445951  0.736756            0           0           0
     10.298420  1.968233  2.881385            0           0           0
     13.013514  4.988054  4.944101            0           0           0
      3.722457  1.076209  7.047329            0           0           0
      9.036817  5.762887  7.057472            0           0           0
      3.746828  1.152850  0.819592            0           0           0
      9.065133  5.724714  0.925373            0           0           0
      5.212120  3.416365  0.860857            0           0           0
     11.656252  8.704956  2.917869            0           0           0
     11.621509  7.299740  4.901783            0           0           0
     12.899801  6.497445  2.823641            0           0           0
      9.013433  4.186125  2.819185            0           0           0
      7.800611  8.005670  6.970801            0           0           0
      7.810527  7.928589  0.868881            0           0           0
     10.316566  6.548306  2.894722            0           0           0
      2.461657  0.316610  4.927330            0           0           0
      7.751538  3.525426  0.863327            0           0           0
      5.102914  1.899843  2.870690            0           0           0
      5.173495  6.405568  2.772261            0           0           0
      7.654181  0.393883  4.892331            0           0           0
      9.055351  1.149861  7.114059            0           0           0
[...]
      9.091830  2.623519  4.939700            0           0           0
      6.395982  2.679971  4.922922            0           0           0
     11.640522  4.178437  2.789004            0           0           0
      2.349716  1.924995  2.861968            0           0           0
     11.590753  5.721772  0.948016            0           0           0
      6.503789  5.696041  0.910522            0           0           0
      7.712777  6.454929  2.810380            0           0           0
      6.431551  4.207157  2.837884            0           0           0
     10.361545  3.378482  7.011446            0           0           0
     10.365531  3.543965  0.904545            0           0           0
     10.236619  0.466792  4.915867            0           0           0
      9.064077  7.340275  4.950593            0           0           0
      6.483441  7.273487  4.944283            0           0           0
      5.048274  0.310346  4.875506            0           0           0
     10.391823  8.780649 10.550315    -0.000964    0.999928   -0.011923

 Finite differences POTIM=  1.500000000000000E-002
  LATTYP: Found a hexagonal cell.
 ALAT       =    10.5600004196
 C/A-ratio  =     2.0833332505

  Lattice vectors:

 A1 = (   5.2800002098,  -9.1452286274,   0.0000000000)
 A2 = ( -10.5600004196,   0.0000000000,   0.0000000000)
 A3 = (   0.0000000000,   0.0000000000, -22.0000000000)

Analysis of symmetry for initial positions (statically):
 Subroutine PRICEL returns:
 Original cell was already a primitive cell.

[...]

The static configuration has the point symmetry C_1 .

Analysis of symmetry for dynamics (positions and initial velocities):
 Subroutine PRICEL returns:
 Original cell was already a primitive cell.

[...]

The dynamic configuration has the point symmetry C_1 .

Analysis of constrained symmetry for selective dynamics:
 Subroutine PRICEL returns:
 Original cell was already a primitive cell.

[...]

The constrained configuration has the point symmetry C_1 .

Analysis of structural, dynamic, and magnetic symmetry:
 Subroutine PRICEL returns:
 Original cell was already a primitive cell.

 Routine SETGRP: Setting up the symmetry group for a
 hexagonal supercell.

 Subroutine GETGRP returns: Found  1 space group operations
 (whereof  1 operations were pure point group operations)
 out of a pool of 24 trial point group operations.

The magnetic configuration has the point symmetry C_1 .

 Subroutine INISYM returns: Found  1 space group operations
 (whereof  1 operations are pure point group operations),
 and found     1 'primitive' translations

 KPOINTS: mesh auto

Automatic generation of k-mesh.
Space group operators:
 irot       det(A)        alpha          n_x          n_y          n_z        tau_x        tau_y        tau_z
    1     1.000000     0.000001     1.000000     0.000000     0.000000     0.000000     0.000000     0.000000

 Subroutine IBZKPT returns following result:

 Found      4 irreducible k-points:

 Following reciprocal coordinates:
            Coordinates               Weight
  0.000000  0.000000  0.000000      1.000000
  0.500000  0.000000  0.000000      1.000000
  0.000000  0.500000  0.000000      1.000000
  0.500000  0.500000  0.000000      1.000000

 Following cartesian coordinates:
            Coordinates               Weight
  0.000000  0.000000  0.000000      1.000000
  0.047348 -0.027337  0.000000      1.000000
  0.000000  0.054673  0.000000      1.000000
  0.047348  0.027337  0.000000      1.000000

 TETIRR: Found     12 inequivalent tetrahedra from       24
 BZINTS: Fermi energy:  2.064616;776.000000 electrons
         Band energy:-679.348611;  BLOECHL correction: -0.081888