 vasp.5.4.4.18Apr17-6-g9f103f2a35 (build Nov 30 2020 22:55:02) complex

 executed on             LinuxIFC date 2023.09.08  21:34:53

 INCAR:
 POTCAR:    PAW_PBE Pt 04Feb2005
 POTCAR:    PAW_PBE Pt 04Feb2005
   VRHFIN =Pt: s1d9

   TITEL  = PAW_PBE Pt 04Feb2005
   POMASS =  195.080; ZVAL   =   10.000    mass and valenz
   ENMAX  =  230.283; ENMIN  =  172.712 eV

 Optimization of the real space projectors (new method)

 maximal supplied QI-value         = 14.36
 optimisation between [QCUT,QGAM] = [ 11.92, 23.98] = [ 39.79,161.09] Ry
 Optimized for a Real-space Cutoff    1.49 Angstroem

   l    n(q)    QCUT    max X(q) W(low)/X(q) W(high)/X(q)  e(spline)
   2     10    11.920    66.195    0.79E-04    0.18E-03    0.24E-06
   2     10    11.920    64.643    0.81E-04    0.19E-03    0.24E-06
   0     11    11.920    95.520    0.28E-04    0.54E-04    0.18E-06
   0     11    11.920    63.403    0.27E-04    0.52E-04    0.17E-06
   1     10    11.920    19.961    0.18E-04    0.11E-03    0.23E-06
   1     10    11.920    13.289    0.25E-04    0.87E-04    0.19E-06
  PAW_PBE Pt 04Feb2005                  :

 POSCAR: Pt111
  positions in direct lattice
  velocities in cartesian coordinates
 exchange correlation table for  LEXCH =        8
   RHO(1)=    0.500       N(1)  =     2000
   RHO(2)=  100.500       N(2)  =     4000

 ion  position               nearest neighbor table
   1  0.785  0.869  0.331-   3 2.71   2 2.71  73 2.72  72 2.72  56 2.72  43 2.72  71 2.78  20 2.78
                            55 2.78  27 2.82  35 2.82  34 2.83
   2  0.035  0.869  0.331-  57 2.71   3 2.71  23 2.71   1 2.71  47 2.72  72 2.72  55 2.78  65 2.78
                            68 2.78  29 2.82  27 2.82  39 2.83
   3  0.034  0.619  0.331-   2 2.71   1 2.71  56 2.72   9 2.72  15 2.72  57 2.72  12 2.78  55 2.78
                            76 2.79  39 2.82  35 2.83  28 2.83
   4  0.787  0.867  0.015-  58 2.71   5 2.71  75 2.71   6 2.71  74 2.72  44 2.72  21 2.82  78 2.82
                            19 2.83
   5  0.037  0.868  0.015-  48 2.71  74 2.71   4 2.71  24 2.72   6 2.72  59 2.72  70 2.82  49 2.82
                            78 2.83
   6  0.037  0.618  0.015-  18 2.71  59 2.71   4 2.71  58 2.72   5 2.72  10 2.72  46 2.82  70 2.82
                            21 2.83
   7  0.619  0.202  0.122-  78 2.71  19 2.71  11 2.71  61 2.71  53 2.72  22 2.72  71 2.78  79 2.78
                            80 2.79  42 2.82  44 2.82  74 2.83
   8  0.369  0.952  0.122-  54 2.71  49 2.71  60 2.72  25 2.72  19 2.72  53 2.72  66 2.78  69 2.78
                            26 2.79  16 2.82  24 2.82  75 2.83
   9  0.034  0.369  0.331-  47 2.71  13 2.71  15 2.71   3 2.72  56 2.72  63 2.72  12 2.78  77 2.78
                            62 2.78  33 2.82  30 2.82  28 2.83
  10  0.037  0.367  0.016-  64 2.71  48 2.71  16 2.72  18 2.72  58 2.72   6 2.72  54 2.82  46 2.83
                            45 2.83
  11  0.869  0.202  0.122-  22 2.71   7 2.71  54 2.72  78 2.72  49 2.72  45 2.72  65 2.78  77 2.78
                            79 2.79  64 2.82  74 2.83  48 2.83
  12  0.952  0.536  0.227-  62 2.71  76 2.71  55 2.71  20 2.72  67 2.72  77 2.72  45 2.78  21 2.78
                             9 2.78   3 2.78  46 2.78  56 2.78
  13  0.284  0.119  0.331-  15 2.71   9 2.71  47 2.71  23 2.72  43 2.72  73 2.72  62 2.78  26 2.78
                            69 2.79  36 2.82  31 2.82  33 2.83
  14  0.534  0.620  0.331-  56 2.71  23 2.71  63 2.71  73 2.71  57 2.72  41 2.72  66 2.78  51 2.78
                            67 2.79  52 2.82  38 2.82  37 2.83
  15  0.284  0.369  0.331-  41 2.71  13 2.71  43 2.71   9 2.71   3 2.72  57 2.72  62 2.78  76 2.78
                            80 2.79  36 2.82  50 2.82  28 2.83
  16  0.287  0.118  0.016-  44 2.71  75 2.71  10 2.72  18 2.72  48 2.72  24 2.72   8 2.82  53 2.82
                            54 2.83
  17  0.537  0.618  0.015-  24 2.71  59 2.71  64 2.72  42 2.72  58 2.72  75 2.72  22 2.82  25 2.82
                            60 2.83
  18  0.287  0.368  0.016-   6 2.71  59 2.71  44 2.72  10 2.72  16 2.72  42 2.72  53 2.82  61 2.82
                            46 2.83
  19  0.619  0.952  0.122-  78 2.71  25 2.71  21 2.71   7 2.71   8 2.72  53 2.72  20 2.78  71 2.78
                            69 2.79  44 2.82  75 2.82   4 2.83
  20  0.702  0.786  0.227-  71 2.71  66 2.71  69 2.72  55 2.72  67 2.72  12 2.72  19 2.78  25 2.78
                            56 2.78   1 2.78  21 2.78  73 2.79
  21  0.869  0.702  0.122-  25 2.71  78 2.71  19 2.71  45 2.71  46 2.72  70 2.72  12 2.78  55 2.78
                            20 2.78   4 2.82  58 2.82   6 2.83
  22  0.620  0.452  0.122-  11 2.71  45 2.71  61 2.71  25 2.72  60 2.72   7 2.72  79 2.78  67 2.78
                            51 2.79  17 2.82  42 2.82  64 2.83
  23  0.285  0.869  0.331-  14 2.71  57 2.71  73 2.71   2 2.71  13 2.72  47 2.72  68 2.78  26 2.78
                            66 2.79  31 2.82  37 2.82  29 2.83
  24  0.287  0.867  0.015-  17 2.71  59 2.71  48 2.72   5 2.72  16 2.72  75 2.72  60 2.82   8 2.82
                            49 2.83
  25  0.619  0.702  0.122-  19 2.71  45 2.71  21 2.71   8 2.72  22 2.72  60 2.72  20 2.78  67 2.78
                            66 2.79  17 2.82  75 2.82  58 2.83
  26  0.202  0.036  0.227-  77 2.71  68 2.71  65 2.71  62 2.71  69 2.72  66 2.72  54 2.78  49 2.78
                            23 2.78  13 2.78  47 2.79   8 2.79
  27  0.868  0.953  0.438-  29 2.71  32 2.72  39 2.72  34 2.72  35 2.72  40 2.72   1 2.82  72 2.82
                             2 2.82
  28  0.117  0.453  0.438-  39 2.71  50 2.71  30 2.71  33 2.72  35 2.72  36 2.72   3 2.83   9 2.83
                            15 2.83
  29  0.117  0.953  0.438-  27 2.71  31 2.71  39 2.71  37 2.72  32 2.72  33 2.72   2 2.82  47 2.82
                            23 2.83
  30  0.868  0.453  0.438-  32 2.71  33 2.71  35 2.71  28 2.71  52 2.72  38 2.72   9 2.82  63 2.83
                            56 2.83
  31  0.367  0.953  0.438-  36 2.71  37 2.71  33 2.71  29 2.71  52 2.72  34 2.72  23 2.82  13 2.82
                            73 2.83
  32  0.867  0.203  0.438-  30 2.71  38 2.71  27 2.72  40 2.72  33 2.72  29 2.72  63 2.82  72 2.83
                            47 2.83
  33  0.117  0.203  0.438-  30 2.71  31 2.71  36 2.71  28 2.72  32 2.72  29 2.72   9 2.82  47 2.82
                            13 2.83
  34  0.618  0.953  0.438-  35 2.71  36 2.71  40 2.71  27 2.72  52 2.72  31 2.72  73 2.82  43 2.82
                             1 2.83
  35  0.867  0.703  0.438-  52 2.71  34 2.71  30 2.71  28 2.72  27 2.72  39 2.72  56 2.82   1 2.82
                             3 2.83
  36  0.367  0.203  0.438-  31 2.71  34 2.71  33 2.71  40 2.71  50 2.72  28 2.72  13 2.82  15 2.82
                            43 2.83
  37  0.368  0.703  0.438-  52 2.71  38 2.71  31 2.71  29 2.72  50 2.72  39 2.72  57 2.82  23 2.82
                            14 2.83
  38  0.617  0.453  0.438-  40 2.71  37 2.71  32 2.71  50 2.72  52 2.72  30 2.72  41 2.82  14 2.82
                            63 2.83
  39  0.117  0.703  0.438-  50 2.71  28 2.71  29 2.71  27 2.72  35 2.72  37 2.72   3 2.82  57 2.83
                             2 2.83
  40  0.617  0.203  0.438-  38 2.71  34 2.71  36 2.71  50 2.72  32 2.72  27 2.72  41 2.82  43 2.82
                            72 2.83
  41  0.534  0.370  0.331-  57 2.71  15 2.71  43 2.71  63 2.72  72 2.72  14 2.72  80 2.78  51 2.78
                            79 2.79  40 2.82  38 2.82  50 2.83
  42  0.538  0.367  0.015-  74 2.71  44 2.71  64 2.71  17 2.72  59 2.72  18 2.72   7 2.82  22 2.82
                            61 2.83
  43  0.534  0.120  0.331-  41 2.71  15 2.71  72 2.71  13 2.72  73 2.72   1 2.72  80 2.78  69 2.78
                            71 2.79  40 2.82  34 2.82  36 2.83
  44  0.537  0.118  0.015-  16 2.71  42 2.71  75 2.71  74 2.71  18 2.72   4 2.72  19 2.82   7 2.82
                            53 2.83
  45  0.869  0.452  0.122-  22 2.71  25 2.71  21 2.71  46 2.72  11 2.72  54 2.72  77 2.78  12 2.78
                            67 2.78  58 2.82  64 2.82  10 2.83
  46  0.119  0.452  0.122-  53 2.71  45 2.72  21 2.72  54 2.72  61 2.72  70 2.72  62 2.78  76 2.78
                            12 2.78   6 2.82  10 2.83  18 2.83
  47  0.034  0.119  0.331-   9 2.71  13 2.71  72 2.72  63 2.72  23 2.72   2 2.72  77 2.78  65 2.78
                            26 2.79  29 2.82  33 2.82  32 2.83
  48  0.037  0.118  0.015-   5 2.71  10 2.71  24 2.72  74 2.72  64 2.72  16 2.72  49 2.82  54 2.83
                            11 2.83
  49  0.119  0.952  0.122-  70 2.71  54 2.71   8 2.71  60 2.71  11 2.72  78 2.72  68 2.78  26 2.78
                            65 2.79  48 2.82   5 2.82  24 2.83
  50  0.367  0.453  0.438-  39 2.71  28 2.71  38 2.72  40 2.72  37 2.72  36 2.72  15 2.82  57 2.83
                            41 2.83
  51  0.452  0.536  0.227-  79 2.71  80 2.71  76 2.71  67 2.72  68 2.72  66 2.72  41 2.78  60 2.78
                            61 2.78  14 2.78  22 2.79  57 2.79
  52  0.617  0.703  0.438-  35 2.71  37 2.71  38 2.72  30 2.72  34 2.72  31 2.72  14 2.82  73 2.82
                            56 2.83
  53  0.369  0.202  0.122-  46 2.71  54 2.71   7 2.72   8 2.72  61 2.72  19 2.72  69 2.78  80 2.78
                            62 2.79  18 2.82  16 2.82  44 2.83
  54  0.119  0.202  0.122-  49 2.71   8 2.71  53 2.71  11 2.72  46 2.72  45 2.72  26 2.78  62 2.78
                            77 2.79  10 2.82  48 2.83  16 2.83
  55  0.952  0.786  0.227-  76 2.71  12 2.71  65 2.71  68 2.71  20 2.72  71 2.72   2 2.78  78 2.78
                             3 2.78  21 2.78   1 2.78  70 2.79
  56  0.784  0.619  0.331-  14 2.71  73 2.71   3 2.72  63 2.72   9 2.72   1 2.72  67 2.78  20 2.78
                            12 2.78  35 2.82  30 2.83  52 2.83
  57  0.284  0.619  0.331-   2 2.71  41 2.71  23 2.71  14 2.72   3 2.72  15 2.72  68 2.78  76 2.78
                            51 2.79  37 2.82  50 2.83  39 2.83
  58  0.787  0.618  0.015-   4 2.71  75 2.71  64 2.71   6 2.72  17 2.72  10 2.72  21 2.82  45 2.82
                            25 2.83
  59  0.287  0.618  0.015-  17 2.71  24 2.71  18 2.71   6 2.71  42 2.72   5 2.72  61 2.82  60 2.82
                            70 2.83
  60  0.369  0.702  0.122-  70 2.71  61 2.71  49 2.71   8 2.72  22 2.72  25 2.72  51 2.78  66 2.78
                            68 2.79  24 2.82  59 2.82  17 2.83
  61  0.370  0.452  0.122-  60 2.71  22 2.71   7 2.71  70 2.72  53 2.72  46 2.72  51 2.78  80 2.78
                            76 2.79  59 2.82  18 2.82  42 2.83
  62  0.202  0.286  0.227-  12 2.71  77 2.71  26 2.71  76 2.72  80 2.72  69 2.72  46 2.78  13 2.78
                            54 2.78  15 2.78   9 2.78  53 2.79
  63  0.784  0.369  0.331-  72 2.71  14 2.71  56 2.72  41 2.72  47 2.72   9 2.72  67 2.78  79 2.78
                            77 2.79  32 2.82  30 2.83  38 2.83
  64  0.787  0.368  0.015-  10 2.71  58 2.71  42 2.71  17 2.72  48 2.72  74 2.72  11 2.82  45 2.82
                            22 2.83
  65  0.952  0.036  0.227-  26 2.71  77 2.71  55 2.71  68 2.72  79 2.72  71 2.72   2 2.78  11 2.78
                            47 2.78  78 2.78  72 2.78  49 2.79
[...]
   -.102E+00 -.357E+00 -.134E+04   0.103E+00 0.316E+00 0.134E+04   0.914E-02 0.632E-03 0.513E+00   -.605E-02 0.447E-01 -.558E-01
   -.782E-01 0.472E+00 0.266E+04   0.802E-01 -.428E+00 -.265E+04   -.555E-02 -.912E-02 -.664E+00   0.984E-02 -.421E-01 0.300E-01
   -.125E+00 -.950E-01 0.265E+04   0.157E+00 0.964E-01 -.265E+04   -.149E-01 0.350E-01 -.662E+00   -.139E-01 -.273E-01 0.313E-01
   -.250E+00 0.508E+00 0.265E+04   0.275E+00 -.506E+00 -.265E+04   0.109E-03 0.601E-03 -.657E+00   -.186E-01 -.771E-02 0.430E-01
   -.201E+00 -.994E-01 0.134E+04   0.191E+00 0.899E-01 -.134E+04   0.356E-02 0.889E-03 -.507E+00   0.186E-01 0.461E-02 -.315E-01
   0.279E-01 -.232E+00 0.134E+04   -.758E-02 0.254E+00 -.134E+04   -.325E-02 0.778E-02 -.520E+00   -.142E-01 -.235E-01 -.659E-02
   0.194E+00 0.249E+00 -.134E+04   -.195E+00 -.267E+00 0.134E+04   0.215E-02 -.137E-01 0.513E+00   -.378E-02 0.225E-01 -.471E-01
   -.179E+00 0.628E-01 0.265E+04   0.210E+00 -.109E+00 -.265E+04   -.231E-01 -.202E-02 -.661E+00   -.870E-02 0.414E-01 0.335E-01
   0.276E+00 -.550E-01 0.134E+04   -.283E+00 0.319E-01 -.134E+04   -.132E-01 0.477E-02 -.508E+00   0.110E-01 0.168E-01 -.219E-01
   0.318E-01 0.938E-01 -.571E+00   -.368E-01 -.130E+00 0.635E+00   -.486E-03 -.405E-02 -.397E-02   0.390E-02 0.358E-01 -.576E-01
   0.101E+00 -.329E-01 -.134E+04   -.832E-01 0.585E-01 0.134E+04   0.531E-02 -.101E-02 0.512E+00   -.260E-01 -.193E-01 -.146E-01
   -.241E+00 -.366E+00 -.134E+04   0.231E+00 0.329E+00 0.134E+04   0.666E-02 0.585E-02 0.523E+00   0.591E-02 0.412E-01 -.409E-01
   -.829E-01 0.361E-01 -.135E+04   0.102E+00 -.622E-01 0.135E+04   0.775E-02 -.549E-02 0.513E+00   -.264E-01 0.303E-01 -.314E-01
   -.422E-02 -.447E+00 0.265E+04   0.209E-01 0.414E+00 -.265E+04   -.134E-02 0.846E-02 -.657E+00   -.933E-02 0.223E-01 0.151E-01
   0.457E+00 0.440E-02 0.265E+04   -.444E+00 -.142E-02 -.265E+04   -.265E-01 0.114E-01 -.662E+00   0.138E-01 -.173E-01 0.287E-01
   0.649E+00 -.465E+00 0.265E+04   -.607E+00 0.406E+00 -.265E+04   -.286E-01 0.301E-01 -.656E+00   -.178E-01 0.332E-01 0.231E-01
   0.157E+00 0.266E-01 0.135E+04   -.175E+00 0.203E-01 -.134E+04   -.180E-02 0.133E-02 -.506E+00   0.216E-01 -.508E-01 -.993E-02
   0.270E+00 0.134E+00 0.104E+01   -.297E+00 -.870E-01 -.101E+01   -.132E-01 -.349E-02 0.712E-02   0.270E-01 -.455E-01 -.378E-01
   0.883E-01 0.339E+00 0.134E+04   -.875E-01 -.309E+00 -.134E+04   -.932E-02 -.299E-02 -.519E+00   0.537E-02 -.331E-01 -.195E-02
   -.661E-01 0.354E-01 0.134E+04   0.469E-01 -.720E-01 -.134E+04   0.758E-03 0.166E-02 -.513E+00   0.251E-01 0.305E-01 -.299E-01
   -.182E+00 0.242E+00 -.134E+04   0.198E+00 -.223E+00 0.134E+04   0.122E-01 -.153E-01 0.524E+00   -.229E-01 -.124E-01 -.263E-01
   0.397E+00 0.735E-01 0.265E+04   -.369E+00 -.514E-01 -.265E+04   -.208E-01 -.877E-03 -.662E+00   -.852E-02 -.259E-01 0.246E-01
   -.141E+00 0.152E+00 0.134E+04   0.120E+00 -.118E+00 -.134E+04   0.253E-02 -.416E-02 -.517E+00   0.274E-01 -.376E-01 -.100E-01
   -.503E-01 -.181E+00 -.443E+00   0.708E-01 0.209E+00 0.473E+00   0.761E-02 -.189E-03 -.303E-02   -.240E-01 -.238E-01 -.257E-01
   -.290E+00 -.138E-02 -.265E+04   0.249E+00 0.425E-01 0.265E+04   0.336E-01 -.100E-01 0.664E+00   0.132E-01 -.311E-01 -.231E-01
   -.227E-01 -.219E+00 -.266E+04   0.904E-02 0.195E+00 0.266E+04   0.232E-01 0.726E-02 0.667E+00   -.714E-02 0.237E-01 -.138E-01
   0.430E+00 0.205E+00 -.265E+04   -.425E+00 -.161E+00 0.265E+04   -.104E-01 -.233E-01 0.665E+00   -.485E-02 -.240E-01 -.239E-01
   -.171E-01 0.385E+00 -.265E+04   -.158E-01 -.380E+00 0.265E+04   0.238E-01 -.289E-01 0.667E+00   0.128E-01 0.156E-01 -.148E-01
   0.343E+00 0.636E-01 -.265E+04   -.323E+00 -.483E-01 0.265E+04   -.223E-01 0.469E-02 0.665E+00   -.153E-01 -.131E-01 -.130E-01
   0.215E+00 -.112E+00 -.265E+04   -.233E+00 0.143E+00 0.265E+04   0.445E-02 0.905E-02 0.658E+00   0.110E-01 -.314E-01 -.762E-02
   0.113E+00 -.122E-01 -.265E+04   -.130E+00 0.403E-01 0.265E+04   0.166E-01 0.381E-02 0.665E+00   -.163E-02 -.223E-01 -.116E-01
   -.694E+00 0.181E-01 -.265E+04   0.658E+00 0.800E-02 0.265E+04   0.313E-01 -.120E-02 0.661E+00   0.907E-02 -.196E-01 -.111E-01
   0.611E+00 -.529E+00 -.265E+04   -.611E+00 0.513E+00 0.265E+04   -.268E-01 0.476E-02 0.664E+00   0.144E-01 0.168E-01 -.315E-01
   -.421E+00 0.796E+00 -.265E+04   0.415E+00 -.743E+00 0.265E+04   0.143E-01 -.381E-01 0.669E+00   -.104E-01 -.204E-01 0.126E-02
   -.966E+00 -.259E+00 -.265E+04   0.934E+00 0.232E+00 0.265E+04   0.545E-01 0.166E-02 0.669E+00   -.118E-01 0.326E-01 -.196E-01
   -.429E-01 0.331E+00 -.265E+04   0.338E-01 -.338E+00 0.265E+04   -.457E-02 -.150E-01 0.668E+00   0.518E-02 0.199E-01 -.107E-02
   0.157E+00 -.310E+00 -.265E+04   -.166E+00 0.294E+00 0.265E+04   0.591E-02 -.163E-01 0.666E+00   -.453E-02 0.316E-01 -.316E-01
   -.142E+00 0.189E+00 -.265E+04   0.132E+00 -.154E+00 0.265E+04   -.443E-03 0.348E-02 0.664E+00   0.268E-02 -.292E-01 0.227E-02
   -.114E+00 0.279E+00 -.134E+04   0.105E+00 -.292E+00 0.134E+04   0.562E-02 -.116E-01 0.521E+00   0.185E-02 0.163E-01 -.282E-01
   0.115E+00 0.109E+00 0.265E+04   -.115E+00 -.135E+00 -.265E+04   0.347E-02 -.125E-01 -.663E+00   0.975E-02 0.261E-01 0.151E-01
   -.276E+00 -.283E-01 -.134E+04   0.266E+00 0.665E-01 0.134E+04   0.104E-01 0.246E-02 0.526E+00   0.369E-02 -.338E-01 -.105E-01
   0.543E+00 -.556E+00 0.265E+04   -.525E+00 0.528E+00 -.265E+04   -.230E-01 0.229E-01 -.665E+00   0.618E-02 0.621E-02 0.701E-02
   -.438E-01 -.249E+00 0.134E+04   0.315E-01 0.206E+00 -.134E+04   -.462E-02 0.109E-01 -.515E+00   0.177E-01 0.397E-01 -.210E-01
   -.171E+00 0.588E-01 0.134E+04   0.203E+00 -.107E+00 -.134E+04   0.554E-03 -.782E-03 -.528E+00   -.267E-01 0.448E-01 -.160E-01
   0.522E-01 -.183E+00 -.134E+04   -.621E-01 0.222E+00 0.134E+04   0.891E-02 -.116E-02 0.518E+00   0.346E-02 -.325E-01 -.258E-01
   -.466E+00 0.678E-01 0.265E+04   0.478E+00 -.943E-01 -.265E+04   -.251E-02 0.103E-02 -.657E+00   -.318E-02 0.189E-01 0.192E-01
   0.128E-01 0.157E+00 0.134E+04   0.646E-02 -.130E+00 -.134E+04   -.261E-02 -.320E-02 -.515E+00   -.149E-01 -.287E-01 0.519E-02
   -.185E+00 0.164E+00 -.266E+04   0.187E+00 -.187E+00 0.266E+04   -.496E-02 -.126E-02 0.666E+00   -.948E-02 0.268E-01 -.689E-03
   0.957E-01 0.322E-01 -.371E+00   -.937E-01 -.792E-01 0.429E+00   0.714E-03 -.281E-02 -.388E-02   -.409E-02 0.475E-01 -.545E-01
   -.124E+00 0.433E-01 -.265E+04   0.107E+00 -.492E-01 0.265E+04   0.108E-01 -.839E-02 0.664E+00   0.363E-02 0.168E-01 -.199E-01
   0.429E+00 -.179E+00 0.134E+04   -.401E+00 0.148E+00 -.134E+04   -.119E-01 0.235E-02 -.522E+00   -.223E-01 0.280E-01 -.305E-01
   -.437E+00 -.369E-01 0.134E+04   0.449E+00 -.200E-02 -.134E+04   0.103E-01 0.107E-02 -.526E+00   -.887E-02 0.357E-01 -.177E-01
   -.380E+00 -.240E-01 0.338E+00   0.376E+00 0.567E-01 -.313E+00   0.971E-02 -.652E-03 0.844E-02   0.521E-02 -.310E-01 -.311E-01
   0.147E+00 -.304E+00 -.134E+04   -.176E+00 0.283E+00 0.134E+04   0.130E-02 0.197E-02 0.517E+00   0.244E-01 0.238E-01 -.542E-01
   0.127E+00 -.235E+00 -.134E+04   -.111E+00 0.180E+00 0.134E+04   0.292E-02 0.639E-03 0.509E+00   -.239E-01 0.591E-01 -.405E-01
   -.750E-01 0.104E+00 0.265E+04   0.815E-01 -.102E+00 -.265E+04   -.175E-01 0.224E-01 -.662E+00   0.133E-01 -.203E-01 0.421E-01
   0.255E+00 0.346E-01 0.265E+04   -.235E+00 -.392E-01 -.265E+04   -.716E-02 0.636E-02 -.657E+00   -.911E-02 -.454E-02 0.336E-01
   0.280E+00 0.136E-01 0.134E+04   -.264E+00 -.645E-02 -.134E+04   -.621E-02 0.807E-02 -.525E+00   -.134E-01 -.125E-01 -.690E-02
[...]
   -.135E+00 -.150E+00 0.648E+00   0.101E+00 0.119E+00 -.595E+00   0.536E-03 0.523E-02 0.486E-02   0.343E-01 0.309E-01 -.595E-01
   0.398E+00 0.975E-01 -.451E+00   -.374E+00 -.894E-01 0.482E+00   -.522E-02 -.461E-02 -.108E-02   -.282E-01 -.677E-02 -.280E-01
   0.779E-01 0.169E+00 0.327E+00   -.702E-01 -.126E+00 -.300E+00   -.243E-03 -.115E-01 0.109E-02   -.915E-02 -.390E-01 -.292E-01
   -.168E+00 0.302E+00 0.134E+04   0.193E+00 -.294E+00 -.134E+04   0.192E-02 -.329E-03 -.522E+00   -.201E-01 -.113E-01 0.430E-02
   -.190E+00 -.947E-02 0.170E+01   0.166E+00 0.727E-01 -.168E+01   0.422E-03 -.280E-02 0.688E-02   0.255E-01 -.596E-01 -.328E-01
   -.293E-02 0.300E-01 -.134E+04   -.200E-01 0.242E-01 0.134E+04   0.556E-03 -.195E-02 0.521E+00   0.194E-01 -.502E-01 -.194E-01
   -.300E-02 0.493E+00 -.134E+04   -.209E-02 -.458E+00 0.134E+04   0.824E-03 -.194E-01 0.522E+00   0.437E-03 -.298E-01 -.280E-01
   0.347E+00 -.164E+00 0.266E+04   -.325E+00 0.147E+00 -.265E+04   -.289E-01 0.140E-01 -.663E+00   0.475E-02 0.209E-02 0.166E-01
   0.116E+00 -.346E+00 0.266E+04   -.115E+00 0.362E+00 -.265E+04   -.230E-02 0.236E-01 -.658E+00   0.114E-01 -.383E-01 0.187E-01
   -.345E-01 -.222E+00 -.171E+01   0.666E-01 0.166E+00 0.178E+01   0.511E-02 0.206E-02 -.168E-01   -.336E-01 0.594E-01 -.537E-01
   -.200E+00 -.768E-02 0.103E-01   0.181E+00 -.181E-01 0.376E-01   0.937E-02 -.236E-02 0.759E-02   0.170E-01 0.273E-01 -.493E-01
   -.116E+00 -.164E+00 0.135E+04   0.116E+00 0.206E+00 -.134E+04   -.135E-02 0.877E-02 -.504E+00   0.540E-02 -.454E-01 -.126E-02
   -.716E-02 0.111E+00 0.104E+01   -.200E-01 -.122E+00 -.999E+00   -.208E-03 -.159E-02 0.232E-03   0.244E-01 0.108E-01 -.523E-01
   -.164E+00 -.435E-01 -.435E+00   0.169E+00 0.199E-01 0.485E+00   0.965E-02 -.202E-02 -.183E-02   -.724E-02 0.258E-01 -.487E-01
   0.152E-01 -.202E-01 0.125E+01   -.395E-12 -.319E-12 0.907E-11   0.273E-01 -.131E-01 0.119E+00   -.705E-03 0.129E-02 -.124E+01

 POSITION                                       TOTAL-FORCE (eV/Angst)
     13.23969      8.17737      7.29756         0.002547     -0.004374      0.006591
      5.09501      8.17753      7.29973        -0.004524     -0.008057      0.000831
      3.73730      5.82569      7.30242         0.003791      0.005019      0.002738
     13.26042      8.16134      0.31667         0.005520     -0.006178     -0.008372
      5.11649      8.15909      0.31839         0.001929      0.009329     -0.008733
      3.75819      5.80963      0.31980         0.005845     -0.005157     -0.003801
      7.82334      1.89673      2.67176         0.011160     -0.003535      0.001117
      9.18116      8.95035      2.67423         0.002026      0.006528     -0.003833
      2.37985      3.47502      7.30252        -0.003899     -0.009433      0.003070
      2.40218      3.45877      0.32098        -0.001518     -0.005869     -0.007617
     10.53902      1.89647      2.67167        -0.010172     -0.001188     -0.001918
     13.24604      5.03787      4.98826        -0.001923     -0.003846      0.000705
      3.73724      1.12315      7.30236        -0.003589      0.005846     -0.000236
      9.16734      5.82558      7.29988         0.001991      0.010008      0.002203
      5.09472      3.47477      7.30382        -0.000528     -0.000906      0.004837
      3.75811      1.10708      0.32026         0.004883     -0.001550     -0.004669
      9.18924      5.80934      0.31864        -0.000496     -0.002328     -0.007885
      5.11690      3.45728      0.32078        -0.005070      0.005240     -0.003296
     11.89577      8.95030      2.67127         0.001849     -0.002008      0.000861
     11.88911      7.38907      4.98503        -0.012817     -0.001869     -0.000191
     13.25379      6.59953      2.67345        -0.003660     -0.005670     -0.007102
      9.18097      4.24783      2.67283         0.005812     -0.004203     -0.001792
      7.80973      8.17759      7.30055         0.003733     -0.007726      0.005815
      7.83157      8.16109      0.32005        -0.001625     -0.003821     -0.010205
     10.53842      6.59955      2.67284         0.008306     -0.007652     -0.002756
      2.38588      0.33508      4.98799         0.003436      0.005056     -0.001251
     14.59079      8.96482      9.65270         0.004819      0.000323      0.009288
      3.73136      4.26147      9.65853         0.001733      0.006319      0.008881
      6.44843      8.96546      9.65475        -0.010543     -0.002559      0.009576
     11.87599      4.26342      9.65478         0.003049     -0.007973      0.011749
      9.16426      8.96349      9.65538        -0.017465      0.006888      0.008619
     10.51980      1.90996      9.65537        -0.002102      0.008339      0.002871
      2.37428      1.91006      9.65665        -0.002256      0.009739      0.006798
     11.87624      8.96408      9.65400         0.004131      0.005422      0.007024
     13.23635      6.61310      9.65453        -0.011636      0.006078      0.009053
      5.08981      1.91220      9.65622        -0.003217     -0.003977      0.010696
      7.80255      6.61306      9.65517         0.010189      0.007729      0.011199
      9.16296      4.26248      9.65384        -0.008401     -0.001646      0.012923
      5.08980      6.61422      9.65684        -0.008142     -0.000467      0.007055
      7.80548      1.91005      9.65301        -0.007578      0.008832      0.010038
      7.80964      3.47489      7.30023        -0.001668     -0.008210      0.004673
      7.82994      3.45980      0.31830         0.012203     -0.010966     -0.007470
      6.45205      1.12299      7.29922         0.003924      0.007211      0.006306
      6.47383      1.10635      0.31857         0.000681      0.001068     -0.011519
     11.89604      4.24766      2.67379         0.000383      0.007538     -0.003689
      3.75118      4.24830      2.67702         0.004593     -0.003466     -0.009184
      1.02204      1.12338      7.30011         0.002022      0.005917      0.004126
      1.04364      1.10731      0.31742         0.005254     -0.005797     -0.004268
      6.46625      8.95072      2.67364         0.000703     -0.004468     -0.003696
      6.44829      4.26165      9.65806        -0.012203      0.002737      0.007607
      7.81623      5.03796      4.98799        -0.001888     -0.002301     -0.002127
     10.51952      6.61352      9.65439        -0.003301      0.002728      0.006954
      5.10887      1.89684      2.67537        -0.007627     -0.000091     -0.006008
      2.39304      1.89691      2.67586         0.012826     -0.001288     -0.009202
     14.60331      7.38885      4.98614         0.010177      0.001388      0.001382
     11.88241      5.82579      7.29988        -0.003547      0.005207     -0.001387
      6.45243      5.82563      7.30299        -0.006201      0.005250     -0.002037
     11.90381      5.80851      0.31838         0.001728      0.004036     -0.004722
      6.47335      5.80965      0.31986         0.002272     -0.002096     -0.003421
      7.82384      6.59885      2.67488        -0.003953      0.003273     -0.006827
[...]
      9.17352      7.38912      4.98672         0.008701     -0.002273      0.003261
     10.53095      5.03762      4.98588         0.000876      0.005289     -0.002976
      6.45927      7.38908      4.98791        -0.010508     -0.002802     -0.000202
      5.10097      0.33563      4.98666        -0.002111     -0.006887     -0.003499
      5.10866      6.59928      2.67547         0.005881     -0.003312     -0.005148
      7.81574      0.33538      4.98414         0.001844      0.001261     -0.004917
      9.16754      1.12336      7.29790        -0.003175      0.002208      0.001933
     10.52513      8.17770      7.29894        -0.004026     -0.014195      0.000209
      9.18941      1.10673      0.31596        -0.001990      0.000169     -0.005575
     10.54520      8.15978      0.31597         0.009156      0.001549     -0.001965
      5.10117      5.03768      4.99063         0.002836      0.005206     -0.004974
     11.88795      2.68660      4.98676         0.006861     -0.000611      0.004448
     14.61097      8.94997      2.67086         0.004120      0.006457      0.000459
      9.17307      2.68667      4.98550        -0.003224     -0.002355     -0.007845
      6.45806      2.68664      4.98811         0.006967      0.000311     -0.001919
    total drift:                                0.041763     -0.032031      0.135543

  FREE ENERGIE OF THE ION-ELECTRON SYSTEM (eV)
  free  energy   TOTEN  =      -515.62563752 eV

  energy  without entropy=     -515.52297145  energy(sigma->0) =     -515.59141550

 d Force = 0.5296505E-02[ 0.865E-03, 0.973E-02]  d Energy = 0.5340243E-02-0.437E-04
 d Force = 0.4970399E+03[ 0.497E+03, 0.497E+03]  d Ewald  = 0.4970399E+03-0.604E-05

 Conjugate gradient step on ions:
 trial-energy change:   -0.005340  1 .order   -0.005297   -0.009728   -0.000865
  (g-gl).g = 0.638E-02      g.g   = 0.743E-02  gl.gl    = 0.918E-02
 g(Force)  = 0.743E-02   g(Stress)= 0.000E+00 ortho     = 0.879E-03
 gamma     =   0.69487
 trial     =   1.20982
 opt step  =   1.32422  (harmonic =   1.32793) maximal distance =0.00695360
 next E    =  -515.625678   (d E  =  -0.00538)

 reached required accuracy - stopping structural energy minimisation