 vasp.5.4.4.18Apr17-6-g9f103f2a35 (build Nov 30 2020 22:55:02) complex

 executed on             LinuxIFC date 2023.09.09  20:36:44

 INCAR:
 POTCAR:    PAW_PBE Co 02Aug2007
 POTCAR:    PAW_PBE Pt 04Feb2005
 POTCAR:    PAW_PBE H 15Jun2001
 POTCAR:    PAW_PBE Co 02Aug2007
   VRHFIN =Co: d8 s1

   TITEL  = PAW_PBE Co 02Aug2007
   POMASS =   58.933; ZVAL   =    9.000    mass and valenz
   ENMAX  =  267.968; ENMIN  =  200.976 eV

 POTCAR:    PAW_PBE Pt 04Feb2005
   VRHFIN =Pt: s1d9

   TITEL  = PAW_PBE Pt 04Feb2005
   POMASS =  195.080; ZVAL   =   10.000    mass and valenz
   ENMAX  =  230.283; ENMIN  =  172.712 eV

 POTCAR:    PAW_PBE H 15Jun2001
   VRHFIN =H: ultrasoft test

   TITEL  = PAW_PBE H 15Jun2001
   POMASS =    1.000; ZVAL   =    1.000    mass and valenz
   ENMAX  =  250.000; ENMIN  =  200.000 eV

 Optimization of the real space projectors (new method)

 maximal supplied QI-value         = 16.25
 optimisation between [QCUT,QGAM] = [ 11.86, 23.89] = [ 39.41,159.82] Ry
 Optimized for a Real-space Cutoff    1.33 Angstroem

   l    n(q)    QCUT    max X(q) W(low)/X(q) W(high)/X(q)  e(spline)
   2      9    11.864    65.824    0.22E-03    0.53E-03    0.26E-06
   2      9    11.864    61.429    0.22E-03    0.53E-03    0.26E-06
   0      9    11.864    56.174    0.21E-03    0.32E-04    0.15E-06
   0      9    11.864    31.263    0.19E-03    0.30E-04    0.14E-06
   1      9    11.864    19.828    0.63E-04    0.30E-03    0.16E-06
   1      9    11.864    15.139    0.49E-04    0.25E-03    0.13E-06
 Optimization of the real space projectors (new method)

[...]

   l    n(q)    QCUT    max X(q) W(low)/X(q) W(high)/X(q)  e(spline)
   2     10    11.920    66.195    0.79E-04    0.18E-03    0.24E-06
   2     10    11.920    64.643    0.81E-04    0.19E-03    0.24E-06
   0     11    11.920    95.520    0.28E-04    0.54E-04    0.18E-06
   0     11    11.920    63.403    0.27E-04    0.52E-04    0.17E-06
   1     10    11.920    19.961    0.18E-04    0.11E-03    0.23E-06
   1     10    11.920    13.289    0.25E-04    0.87E-04    0.19E-06
 Optimization of the real space projectors (new method)

 maximal supplied QI-value         = 34.20
 optimisation between [QCUT,QGAM] = [ 11.97, 23.94] = [ 40.13,160.53] Ry
 Optimized for a Real-space Cutoff    1.18 Angstroem

   l    n(q)    QCUT    max X(q) W(low)/X(q) W(high)/X(q)  e(spline)
   0      8    11.971    19.460    0.15E-03    0.31E-03    0.25E-06
   0      8    11.971    12.209    0.13E-03    0.29E-03    0.25E-06
   1      8    11.971     4.655    0.22E-03    0.24E-03    0.21E-06
  PAW_PBE Co 02Aug2007                  :
  PAW_PBE Pt 04Feb2005                  :
  PAW_PBE H 15Jun2001                   :

 POSCAR: PtM\(2)
  positions in direct lattice
  velocities in cartesian coordinates
 exchange correlation table for  LEXCH =        8
   RHO(1)=    0.500       N(1)  =     2000
   RHO(2)=  100.500       N(2)  =     4000

 ion  position               nearest neighbor table
   1  0.785  0.869  0.311-  55 2.42  20 2.42  39 2.42  73 2.63   3 2.63   2 2.64  40 2.64  56 2.64
                            57 2.64  65 2.64  29 2.64  72 2.64
   2  0.035  0.869  0.311-  39 2.42  49 2.42  52 2.42  77 2.62  67 2.63  65 2.63   1 2.64   3 2.64
                            56 2.64  23 2.64  41 2.65  33 2.65
   3  0.035  0.620  0.312-  39 2.42  12 2.42  60 2.42  77 2.62  66 2.62   1 2.63  73 2.64   2 2.64
                            40 2.64  15 2.64   9 2.64  41 2.65
   4  0.787  0.868  0.051-  21 2.41  62 2.41  19 2.41   5 2.64   6 2.64  42 2.64  59 2.64  58 2.64
                            30 2.64
   5  0.037  0.868  0.051-  54 2.41  35 2.41  62 2.41  58 2.64  24 2.64   4 2.64  43 2.64   6 2.64
                            34 2.64
   6  0.037  0.618  0.051-  32 2.41  54 2.41  21 2.41  43 2.64  10 2.64  18 2.64   4 2.64  42 2.64
                             5 2.64
   7  0.620  0.202  0.136-  28 2.41  30 2.41  58 2.41  55 2.50  63 2.50  64 2.51  62 2.64  11 2.64
                            37 2.64  19 2.64  45 2.64  22 2.64
   8  0.370  0.952  0.136-  16 2.41  24 2.41  59 2.41  53 2.50  26 2.50  50 2.51  38 2.64  25 2.64
                            44 2.64  19 2.64  37 2.64  35 2.64
   9  0.035  0.369  0.311-  12 2.42  61 2.42  46 2.42  71 2.62  66 2.63  68 2.63  13 2.63  33 2.63
                            40 2.64   3 2.64  47 2.64  15 2.65
  10  0.037  0.368  0.051-  38 2.41  32 2.41  31 2.41   6 2.64  48 2.64  34 2.64  18 2.64  42 2.64
                            16 2.64
  11  0.870  0.202  0.136-  48 2.41  58 2.41  34 2.41  61 2.50  49 2.50  63 2.52  35 2.64   7 2.64
                            22 2.64  38 2.64  31 2.64  62 2.64
  12  0.952  0.536  0.226-   9 2.42   3 2.42  40 2.42  21 2.50  31 2.50  32 2.51  39 2.64  20 2.64
                            61 2.64  46 2.64  60 2.65  51 2.65
  13  0.284  0.120  0.311-  46 2.42  26 2.42  53 2.42  69 2.63  74 2.63   9 2.63  71 2.63  33 2.63
                            23 2.64  15 2.65  29 2.65  57 2.65
  14  0.534  0.619  0.313-  36 2.42  50 2.43  51 2.43  27 2.62  41 2.62  80 2.63  47 2.63  23 2.65
                            40 2.65  57 2.65  76 2.67  75 2.67
  15  0.285  0.370  0.312-  60 2.42  64 2.42  46 2.42  74 2.62  41 2.63  66 2.63  27 2.63   3 2.64
                            13 2.65  29 2.65   9 2.65  79 2.65
  16  0.287  0.118  0.051-   8 2.41  37 2.41  38 2.41  18 2.64  30 2.64  59 2.64  34 2.64  10 2.64
                            24 2.64
  17  0.536  0.618  0.051-  22 2.41  25 2.41  44 2.41  43 2.64  28 2.64  24 2.64  59 2.64  48 2.64
                            42 2.64
  18  0.287  0.368  0.051-  37 2.41  45 2.41  32 2.41  16 2.64   6 2.64  43 2.64  10 2.64  28 2.64
                            30 2.64
  19  0.620  0.952  0.136-  30 2.41  59 2.41   4 2.41  55 2.50  20 2.50  53 2.51  62 2.64  21 2.64
                            37 2.64   7 2.64  25 2.64   8 2.64
  20  0.702  0.785  0.226-  40 2.42   1 2.42  57 2.42  25 2.50  19 2.50  21 2.51  51 2.64  12 2.64
                            53 2.64  50 2.64  55 2.64  39 2.64
  21  0.870  0.702  0.136-   4 2.41  42 2.41   6 2.41  12 2.50  39 2.50  20 2.51  31 2.64  19 2.64
                            62 2.64  25 2.64  32 2.64  54 2.64
  22  0.620  0.452  0.136-  17 2.41  28 2.41  48 2.41  63 2.50  51 2.50  36 2.51  31 2.64  25 2.64
                            45 2.64  11 2.64  44 2.64   7 2.64
  23  0.284  0.870  0.312-  26 2.41  52 2.42  50 2.42  69 2.63  67 2.63  33 2.64  13 2.64  57 2.64
                             2 2.64  41 2.65  14 2.65  75 2.65
  24  0.286  0.868  0.051-  44 2.41   8 2.41  35 2.41  34 2.64   5 2.64  17 2.64  43 2.64  59 2.64
                            16 2.64
  25  0.620  0.702  0.136-  59 2.41  17 2.41  42 2.41  20 2.50  51 2.50  50 2.51  22 2.64  31 2.64
                             8 2.64  44 2.64  19 2.64  21 2.64
  26  0.202  0.035  0.226-  23 2.41  13 2.42  33 2.42  35 2.50  38 2.50   8 2.50  53 2.64  49 2.64
                            52 2.64  50 2.64  46 2.65  61 2.65
  27  0.534  0.371  0.313-  36 2.42  64 2.43  63 2.43  14 2.62  41 2.62  78 2.62  15 2.63  47 2.63
                            56 2.65  29 2.65  79 2.67  76 2.67
  28  0.537  0.368  0.051-   7 2.41  22 2.41  45 2.41  30 2.64  58 2.64  17 2.64  18 2.64  48 2.64
                            43 2.64
  29  0.536  0.119  0.311-  64 2.42  55 2.42  53 2.42  78 2.62  72 2.63  56 2.63  74 2.64   1 2.64
                            57 2.64  15 2.65  13 2.65  27 2.65
  30  0.537  0.118  0.051-  19 2.41   7 2.41  37 2.41  28 2.64  16 2.64  59 2.64  58 2.64  18 2.64
                             4 2.64
  31  0.870  0.452  0.136-  42 2.41  48 2.41  10 2.41  61 2.49  12 2.50  51 2.52  22 2.64  21 2.64
                            25 2.64  11 2.64  32 2.64  38 2.64
  32  0.120  0.452  0.136-   6 2.41  10 2.41  18 2.41  46 2.49  12 2.51  60 2.51  38 2.64  54 2.64
                            21 2.64  37 2.64  45 2.64  31 2.64
  33  0.035  0.120  0.311-  61 2.42  49 2.42  26 2.42  67 2.63  70 2.63  71 2.63   9 2.63  13 2.63
                            23 2.64  47 2.64  56 2.65   2 2.65
  34  0.037  0.118  0.051-  35 2.41  38 2.41  11 2.41  24 2.64  10 2.64  48 2.64  16 2.64  58 2.64
                             5 2.64
  35  0.120  0.952  0.136-  34 2.41   5 2.41  24 2.41  26 2.50  49 2.51  52 2.51  11 2.64  38 2.64
                            54 2.64  44 2.64   8 2.64  62 2.64
  36  0.452  0.536  0.226-  27 2.42  14 2.42  41 2.43  44 2.50  45 2.50  22 2.51  51 2.63  64 2.63
                            63 2.63  50 2.63  60 2.63  52 2.63
  37  0.370  0.202  0.136-  18 2.41  16 2.41  30 2.41  53 2.50  46 2.50  64 2.51   7 2.64  19 2.64
                             8 2.64  45 2.64  32 2.64  38 2.64
  38  0.120  0.202  0.136-  10 2.41  34 2.41  16 2.41  26 2.50  46 2.50  61 2.51   8 2.64  35 2.64
                            32 2.64  11 2.64  37 2.64  31 2.64
  39  0.952  0.785  0.226-   2 2.42   3 2.42   1 2.42  62 2.50  21 2.50  54 2.50  60 2.64  12 2.64
                            49 2.64  52 2.64  55 2.64  20 2.64
  40  0.785  0.619  0.312-  20 2.42  51 2.42  12 2.42  80 2.62  68 2.62  73 2.63   1 2.64  57 2.64
                            47 2.64   3 2.64   9 2.64  14 2.65
  41  0.286  0.619  0.312-  52 2.43  36 2.43  60 2.43  27 2.62  14 2.62  77 2.63  15 2.63  23 2.65
                             2 2.65   3 2.65  79 2.66  75 2.67
  42  0.787  0.618  0.051-  31 2.41  21 2.41  25 2.41  48 2.64  10 2.64   4 2.64   6 2.64  59 2.64
                            17 2.64
  43  0.287  0.618  0.051-  45 2.41  44 2.41  54 2.41   6 2.64  18 2.64  17 2.64   5 2.64  24 2.64
                            28 2.64
  44  0.370  0.702  0.136-  24 2.41  43 2.41  17 2.41  50 2.50  36 2.50  52 2.51  54 2.64  25 2.64
                            45 2.64   8 2.64  35 2.64  22 2.64
  45  0.370  0.452  0.136-  43 2.41  18 2.41  28 2.41  64 2.50  36 2.50  60 2.51  22 2.64  44 2.64
                            37 2.64   7 2.64  54 2.64  32 2.64
  46  0.202  0.286  0.226-  13 2.42   9 2.42  15 2.42  32 2.49  37 2.50  38 2.50  64 2.64  12 2.64
                            60 2.64  53 2.64  26 2.65  61 2.65
  47  0.784  0.370  0.312-  51 2.42  63 2.42  61 2.42  70 2.62  68 2.63  14 2.63  27 2.63  40 2.64
                            33 2.64   9 2.64  56 2.65  76 2.66
  48  0.787  0.368  0.051-  11 2.41  31 2.41  22 2.41  10 2.64  42 2.64  34 2.64  58 2.64  28 2.64
                            17 2.64
  49  0.952  0.036  0.226-   2 2.42  33 2.42  56 2.42  11 2.50  62 2.50  35 2.51  55 2.64  39 2.64
                            26 2.64  61 2.64  52 2.65  63 2.65
  50  0.452  0.785  0.226-  57 2.42  23 2.42  14 2.43  44 2.50   8 2.51  25 2.51  51 2.62  36 2.63
                            52 2.64  20 2.64  26 2.64  53 2.65
  51  0.701  0.536  0.226-  47 2.42  40 2.42  14 2.43  25 2.50  22 2.50  31 2.52  50 2.62  36 2.63
                            20 2.64  63 2.64  61 2.64  12 2.65
  52  0.203  0.785  0.226-  23 2.42   2 2.42  41 2.43  54 2.50  35 2.51  44 2.51  60 2.63  36 2.63
                            50 2.64  39 2.64  26 2.64  49 2.65
  53  0.452  0.036  0.226-  57 2.42  29 2.42  13 2.42  37 2.50   8 2.50  19 2.51  55 2.64  20 2.64
                            26 2.64  46 2.64  50 2.65  64 2.65
[...]
   -.375E+01 0.178E+01 -.126E+04   0.374E+01 -.175E+01 0.126E+04   -.156E-01 0.114E-01 0.163E+01   0.303E-01 -.398E-01 0.220E+00
   0.276E+00 -.107E+00 0.275E+04   -.295E+00 0.111E+00 -.275E+04   0.360E-01 0.215E-01 -.229E+01   -.265E-01 -.237E-01 -.645E-01
   -.492E+00 0.217E+00 0.275E+04   0.540E+00 -.201E+00 -.275E+04   -.441E-01 0.277E-01 -.226E+01   0.203E-02 -.476E-01 -.627E-01
   -.256E+00 0.292E+00 0.275E+04   0.261E+00 -.311E+00 -.275E+04   -.126E-01 0.628E-02 -.225E+01   0.793E-02 0.895E-02 -.441E-01
   0.150E+00 -.185E+01 0.140E+04   -.124E+00 0.178E+01 -.140E+04   0.416E-02 -.441E-02 -.181E+00   -.307E-01 0.880E-01 0.427E-02
   0.892E+00 0.141E+01 0.140E+04   -.937E+00 -.135E+01 -.140E+04   0.222E-03 0.888E-02 -.144E+00   0.349E-01 -.890E-01 -.135E-01
   0.372E+01 0.127E+01 -.126E+04   -.375E+01 -.130E+01 0.126E+04   -.320E-01 0.148E-01 0.163E+01   0.640E-01 0.154E-01 0.265E+00
   0.592E-01 0.116E+00 0.275E+04   -.666E-01 -.129E+00 -.274E+04   0.212E-01 -.500E-01 -.225E+01   -.162E-01 0.646E-01 -.823E-01
   0.118E+00 -.171E+01 0.140E+04   -.539E-01 0.165E+01 -.140E+04   -.820E-02 0.807E-02 -.173E+00   -.630E-01 0.655E-01 -.113E-01
   -.452E+00 0.232E+01 0.848E+02   0.388E+00 -.239E+01 -.847E+02   0.832E-02 0.512E-01 -.286E+00   0.573E-01 0.186E-01 0.113E+00
   0.287E+01 0.232E+01 -.126E+04   -.289E+01 -.236E+01 0.126E+04   -.132E-01 -.147E-01 0.163E+01   0.432E-01 0.411E-01 0.272E+00
   -.713E+00 0.137E+00 -.131E+04   0.682E+00 -.137E+00 0.131E+04   0.547E-01 0.426E-01 0.188E+01   -.128E-01 -.399E-01 0.330E+00
   -.970E+01 -.537E+01 -.126E+04   0.975E+01 0.538E+01 0.126E+04   -.402E-01 -.136E-01 0.162E+01   0.989E-02 0.671E-02 0.241E+00
   0.373E+00 0.316E-01 0.275E+04   -.386E+00 -.262E-01 -.275E+04   -.281E-01 0.305E-01 -.226E+01   0.385E-01 -.383E-01 -.955E-01
   0.730E-01 0.734E-01 0.275E+04   -.698E-01 -.578E-01 -.275E+04   0.120E-01 -.555E-03 -.227E+01   -.168E-01 -.149E-01 0.168E-01
   -.348E+00 -.191E+00 0.275E+04   0.307E+00 0.167E+00 -.274E+04   -.252E-01 -.257E-01 -.226E+01   0.672E-01 0.487E-01 -.220E-01
   0.101E+01 -.610E-01 0.140E+04   -.989E+00 0.887E-01 -.140E+04   0.347E-02 -.152E-02 -.171E+00   -.177E-01 -.236E-01 0.794E-02
   0.173E+01 0.143E+01 0.838E+02   -.178E+01 -.143E+01 -.837E+02   0.124E-01 0.116E-01 -.330E+00   0.419E-01 -.973E-02 0.823E-01
   0.484E+00 0.877E+00 0.140E+04   -.461E+00 -.848E+00 -.140E+04   -.188E-03 0.806E-02 -.172E+00   -.246E-01 -.267E-01 0.138E-01
   0.261E+00 -.405E+00 0.140E+04   -.222E+00 0.364E+00 -.140E+04   0.518E-02 -.162E-01 -.164E+00   -.529E-01 0.616E-01 -.649E-01
   -.968E+00 0.147E+01 -.128E+04   0.105E+01 -.163E+01 0.128E+04   -.442E-01 0.169E+00 0.162E+01   -.372E-01 -.124E-01 0.292E+00
   -.356E+00 0.229E+00 0.275E+04   0.322E+00 -.135E+00 -.275E+04   0.212E-02 0.251E-02 -.227E+01   0.352E-01 -.955E-01 -.385E-01
   0.136E+01 0.702E+00 0.140E+04   -.134E+01 -.669E+00 -.140E+04   0.156E-01 0.115E-01 -.155E+00   -.428E-01 -.427E-01 -.501E-01
   -.262E+00 -.572E+00 0.787E+02   0.276E+00 0.518E+00 -.786E+02   -.194E-01 0.700E-01 -.314E+00   0.364E-02 -.231E-01 0.145E+00
   0.290E+01 -.350E+01 -.129E+04   -.278E+01 0.368E+01 0.129E+04   -.593E-01 -.142E+00 0.169E+01   -.528E-01 -.400E-01 0.302E+00
   0.726E-01 -.646E+00 0.275E+04   -.977E-01 0.599E+00 -.275E+04   0.150E-01 -.241E-01 -.226E+01   0.773E-02 0.743E-01 0.262E-01
   -.405E+00 -.436E+01 -.126E+04   0.396E+00 0.432E+01 0.126E+04   -.650E-02 -.459E-02 0.163E+01   0.180E-01 0.433E-01 0.223E+00
   0.226E+00 -.469E+00 0.275E+04   -.255E+00 0.492E+00 -.275E+04   0.468E-02 -.233E-01 -.226E+01   0.178E-01 0.453E-02 -.560E-01
   0.151E+01 0.156E+00 0.140E+04   -.148E+01 -.228E+00 -.140E+04   0.928E-02 -.490E-02 -.144E+00   -.519E-01 0.787E-01 -.924E-03
   -.103E+01 -.102E+01 0.140E+04   0.970E+00 0.956E+00 -.140E+04   0.461E-02 0.973E-02 -.134E+00   0.596E-01 0.703E-01 0.494E-01
   -.225E+01 -.151E+01 -.127E+04   0.225E+01 0.150E+01 0.126E+04   0.979E-02 0.179E-01 0.163E+01   -.702E-02 0.432E-03 0.318E+00
   -.184E+00 -.192E+00 0.275E+04   0.172E+00 0.189E+00 -.275E+04   0.248E-01 0.968E-02 -.225E+01   -.226E-01 -.901E-02 -.104E+00
   -.124E+01 0.792E+00 0.140E+04   0.123E+01 -.701E+00 -.140E+04   0.288E-02 -.127E-01 -.173E+00   0.111E-01 -.866E-01 -.143E-01
   0.801E+00 0.533E+00 0.718E+02   -.760E+00 -.506E+00 -.716E+02   0.293E-01 0.174E-01 -.321E+00   -.677E-01 -.425E-01 -.153E-01
   -.131E+01 -.737E+00 0.140E+04   0.123E+01 0.701E+00 -.140E+04   0.717E-02 0.442E-03 -.135E+00   0.843E-01 0.386E-01 0.429E-01
   0.169E+01 0.574E+00 0.140E+04   -.173E+01 -.610E+00 -.140E+04   -.464E-02 0.131E-02 -.107E+00   0.806E-02 0.230E-01 0.173E-01
   -.135E+01 0.189E+01 0.863E+02   0.138E+01 -.184E+01 -.862E+02   -.360E-01 0.392E-01 -.322E+00   0.318E-02 -.803E-01 0.136E+00
   0.673E+01 0.684E+00 -.127E+04   -.694E+01 -.619E+00 0.127E+04   0.110E+00 -.593E-01 0.164E+01   0.970E-01 -.561E-02 0.223E+00
   -.140E+01 0.455E+01 -.129E+04   0.163E+01 -.452E+01 0.129E+04   -.164E+00 0.335E-01 0.169E+01   -.573E-01 -.630E-01 0.304E+00
   0.599E+00 0.223E+00 0.275E+04   -.577E+00 -.251E+00 -.275E+04   0.251E-01 0.142E-01 -.227E+01   -.523E-01 0.133E-01 -.352E-01
   -.391E+00 0.182E+00 0.275E+04   0.339E+00 -.168E+00 -.275E+04   -.931E-02 0.180E-01 -.226E+01   0.612E-01 -.315E-01 0.259E-01
   -.262E+00 0.351E+00 0.140E+04   0.249E+00 -.280E+00 -.140E+04   -.112E-01 0.149E-01 -.165E+00   0.202E-01 -.889E-01 -.678E-01
   -.849E+00 -.539E+00 0.140E+04   0.829E+00 0.523E+00 -.140E+04   -.785E-02 -.206E-02 -.152E+00   0.464E-01 0.332E-01 0.389E-02
   0.730E+00 0.314E+00 0.904E+02   -.811E+00 -.390E+00 -.903E+02   0.313E-01 0.224E-01 -.318E+00   0.528E-01 0.523E-01 0.190E+00
   0.824E+00 -.194E+01 -.128E+04   -.931E+00 0.207E+01 0.128E+04   0.114E+00 -.103E+00 0.162E+01   -.911E-02 -.302E-01 0.282E+00
   0.411E+00 -.411E+00 0.275E+04   -.357E+00 0.342E+00 -.275E+04   0.118E-02 -.108E-01 -.227E+01   -.587E-01 0.829E-01 -.270E-01
   -.169E+01 -.140E+01 0.867E+02   0.175E+01 0.144E+01 -.867E+02   -.565E-01 -.241E-01 -.316E+00   -.988E-02 -.103E-01 0.133E+00
   0.167E+00 -.882E+00 0.744E+02   -.206E+00 0.875E+00 -.742E+02   0.279E-01 0.683E-02 -.319E+00   0.147E-01 -.904E-03 0.231E-01
   -.887E+00 0.957E+00 0.739E+02   0.837E+00 -.980E+00 -.737E+02   0.177E-01 0.261E-01 -.321E+00   0.356E-01 -.474E-02 0.271E-01
   -.118E+01 0.207E+00 0.767E+02   0.125E+01 -.154E+00 -.766E+02   -.342E-01 0.581E-02 -.311E+00   -.261E-01 -.647E-01 0.871E-01
   0.169E+01 -.157E+01 0.849E+02   -.179E+01 0.154E+01 -.848E+02   0.434E-01 -.126E-01 -.288E+00   0.557E-01 0.302E-01 0.111E+00
   -.113E+01 0.995E+00 0.140E+04   0.109E+01 -.920E+00 -.140E+04   -.571E-02 0.904E-02 -.183E+00   0.476E-01 -.808E-01 0.690E-02
   0.410E+00 -.204E+01 0.857E+02   -.375E+00 0.205E+01 -.856E+02   0.151E-01 -.401E-01 -.320E+00   -.424E-01 0.240E-01 0.138E+00
   0.328E+00 -.461E+01 -.126E+04   -.286E+00 0.460E+01 0.126E+04   -.149E-01 0.366E-02 0.166E+01   -.233E-01 0.352E-02 0.309E+00
   0.351E+01 0.570E+01 -.127E+04   -.358E+01 -.589E+01 0.127E+04   -.190E-02 0.139E+00 0.164E+01   0.638E-01 0.392E-01 0.234E+00
   -.291E-01 -.565E+00 0.275E+04   0.523E-01 0.611E+00 -.275E+04   0.788E-02 -.629E-01 -.227E+01   -.336E-01 0.264E-01 -.615E-01
   0.686E+00 0.266E+00 0.275E+04   -.709E+00 -.212E+00 -.275E+04   0.262E-01 0.967E-02 -.228E+01   -.106E-01 -.629E-01 -.460E-01
   -.453E+00 0.113E+01 0.769E+02   0.533E+00 -.112E+01 -.768E+02   -.778E-01 0.307E-01 -.316E+00   0.218E-02 -.387E-01 0.111E+00
[...]
   -.312E+01 -.404E+01 -.290E+04   0.306E+01 0.434E+01 0.290E+04   0.907E-01 -.375E+00 0.226E+01   -.223E-01 0.730E-01 0.177E+00
   -.363E+01 0.561E+01 -.291E+04   0.368E+01 -.562E+01 0.291E+04   -.180E-01 0.294E-01 0.206E+01   -.139E-01 -.488E-01 0.158E+00
   0.291E+00 0.112E+00 -.292E+04   -.436E+00 -.191E+00 0.292E+04   0.595E-02 -.530E-03 0.199E+01   0.106E+00 0.573E-01 0.136E+00
   -.238E+01 -.394E+01 -.291E+04   0.234E+01 0.394E+01 0.291E+04   0.652E-03 -.287E-01 0.208E+01   0.399E-01 0.390E-01 0.153E+00
   -.450E+01 0.235E+00 -.291E+04   0.448E+01 -.237E+00 0.291E+04   -.249E-01 0.261E-02 0.208E+01   0.617E-01 -.111E-01 0.131E+00
   -.709E+00 0.343E+01 -.291E+04   0.760E+00 -.348E+01 0.291E+04   0.172E-01 0.412E-01 0.209E+01   -.328E-01 0.492E-02 0.119E+00
   0.109E+02 -.195E+02 -.292E+04   -.118E+02 0.212E+02 0.292E+04   0.100E+01 -.170E+01 0.222E+01   -.721E-01 -.227E-01 0.214E+00
   -.114E+02 0.198E+02 -.292E+04   0.124E+02 -.214E+02 0.292E+04   -.976E+00 0.170E+01 0.221E+01   -.490E-01 -.722E-01 0.193E+00
   0.620E+01 0.933E+00 -.290E+04   -.648E+01 -.753E+00 0.290E+04   0.277E+00 -.231E+00 0.220E+01   -.782E-02 0.320E-01 0.118E+00
   0.367E+01 0.486E+01 -.290E+04   -.367E+01 -.518E+01 0.290E+04   -.571E-01 0.342E+00 0.219E+01   0.471E-01 -.269E-01 0.115E+00
   0.196E+02 0.116E+02 -.290E+04   -.200E+02 -.118E+02 0.290E+04   0.346E+00 0.197E+00 0.813E+00   -.241E-02 -.137E-01 0.117E+00
   -.187E+02 -.106E+02 -.290E+04   0.189E+02 0.108E+02 0.290E+04   -.324E+00 -.194E+00 0.625E+00   0.815E-01 0.194E-01 0.234E+00
   -.917E+00 -.497E+00 -.352E+03   0.142E+01 0.785E+00 0.354E+03   -.491E+00 -.279E+00 -.173E+01   -.293E-02 -.201E-02 -.357E-02
   0.151E+01 0.818E+00 -.352E+03   -.209E+01 -.115E+01 0.354E+03   0.582E+00 0.327E+00 -.175E+01   -.164E-02 -.128E-02 0.735E-03
   -.361E+00 0.867E-01 -.186E+02   -.400E-13 -.568E-12 -.375E-11   0.130E+00 0.144E+00 0.107E+02   0.299E+00 -.289E+00 0.770E+01

 POSITION                                       TOTAL-FORCE (eV/Angst)
     12.88699      7.95093      6.83715        -0.006172     -0.000905     -0.000168
      4.95803      7.95500      6.84451         0.005213     -0.000768     -0.000189
      3.64353      5.66167      6.84108         0.001687     -0.003465     -0.000411
     12.89069      7.93773      1.12741        -0.010201      0.002313      0.008468
      4.96971      7.93912      1.12853         0.004782     -0.003651     -0.000154
      3.64996      5.65178      1.12919        -0.001222     -0.003649     -0.003982
      7.60878      1.84336      2.99165        -0.001272      0.009431     -0.015830
      8.92835      8.70314      2.99118        -0.011142     -0.011086      0.009410
      2.31879      3.37518      6.84399         0.003865     -0.000238     -0.005238
      2.33014      3.36655      1.12948        -0.003417      0.003069     -0.001295
     10.24821      1.84422      2.99131        -0.007360      0.011892     -0.005421
     12.87840      4.90046      4.96914         0.000807     -0.003442      0.001764
      3.63890      1.08876      6.84429         0.005925     -0.004274     -0.006083
      8.91933      5.66288      6.89128         0.004543      0.000281      0.002186
      4.93992      3.36462      6.83713         0.015856      0.004544      0.007350
      3.65135      1.08064      1.12857        -0.003007     -0.001788      0.001354
      8.92822      5.65256      1.12711        -0.002490      0.000943      0.005465
      4.96947      3.36626      1.12979        -0.000284     -0.000416     -0.010339
     11.56837      8.70268      2.99081         0.002524      0.003661     -0.027083
     11.55898      7.18403      4.97086         0.000275     -0.001616      0.002297
     12.88773      6.41669      2.99144        -0.002727      0.011033     -0.029039
      8.92877      4.13087      2.99094        -0.009623      0.005046     -0.001422
      7.60162      7.92624      6.86598         0.001762     -0.002043     -0.001860
      7.60872      7.93941      1.12826         0.002773      0.002529     -0.007666
     10.24764      6.41689      2.99007        -0.006746      0.001918      0.005480
      2.32098      0.31205      4.97496        -0.001718     -0.005787      0.003642
      7.60673      3.39343      6.87508         0.004083      0.007714     -0.000010
      7.61014      3.36516      1.12844        -0.003264      0.004205     -0.000883
      6.28189      1.09151      6.84207         0.001739     -0.002414     -0.004494
      6.29074      1.07989      1.12823        -0.007852      0.005042     -0.002440
     11.56758      4.13145      2.99207        -0.017185      0.002045      0.006491
      3.64852      4.13027      2.99330         0.004543      0.017594     -0.001277
      0.99847      1.08817      6.84610         0.003325      0.002726      0.004830
      1.01138      1.08038      1.12855        -0.010331     -0.001629     -0.001156
      6.28784      8.70360      2.99199         0.003409     -0.007917     -0.007511
      7.61024      4.90300      4.98564         0.000398      0.001010      0.021390
      4.96921      1.84376      2.99252         0.010850      0.003632      0.001467
      2.32865      1.84375      2.99248        -0.029789     -0.010780      0.018507
     14.20428      7.18400      4.96774         0.004381      0.002050     -0.002293
     11.56482      5.66523      6.84642        -0.009952     -0.000783     -0.000111
      6.29885      5.66052      6.87585         0.011479     -0.009970     -0.005220
     11.56997      5.65227      1.12748        -0.006169      0.000136     -0.001951
      6.28879      5.65201      1.12872        -0.001400      0.001079     -0.003980
      7.60795      6.41722      2.99124        -0.005196     -0.002708     -0.000838
      6.28923      4.13040      2.99242         0.017128      0.015862      0.003268
      3.63891      2.60926      4.96007         0.001733     -0.000394      0.005486
     10.22181      3.38870      6.86581        -0.001370      0.002202     -0.007520
     10.25111      3.36601      1.12793        -0.003610      0.004547     -0.004445
     10.24478      0.32646      4.96665        -0.000809     -0.001248      0.000461
      8.91958      7.17192      4.98243         0.003541      0.001563      0.016765
     10.22979      4.90380      4.98284         0.004950     -0.001038      0.014734
      6.28393      7.17663      4.97889         0.002863     -0.004004      0.012313
      4.96235      0.32108      4.96897         0.001456     -0.003097      0.002987
      4.96835      6.41701      2.99223         0.000904      0.004105     -0.019100
      7.60177      0.32801      4.96868         0.006625     -0.002468     -0.004167
      8.92482      1.08703      6.84306         0.003963     -0.002622     -0.003418
     10.24367      7.95183      6.84677        -0.003667     -0.013478     -0.001895
      8.93102      1.07962      1.12774        -0.003334      0.010612      0.002545
     10.25010      7.93928      1.12746        -0.008263      0.001037     -0.004899
      4.97770      4.90246      4.97761         0.002141     -0.001615      0.004702
[...]
     11.57537      4.13235      8.98093         0.001804     -0.001971      0.002108
      8.91868      8.73284      8.98145         0.003213     -0.002969      0.002093
     10.24494      1.85099      8.98991         0.018714     -0.019273     -0.005362
      2.31897      1.85541      8.98671        -0.035753     -0.022520     -0.004105
     11.57092      8.72480      8.97805        -0.000750      0.010168      0.004388
     12.89456      6.43295      8.97822         0.011149     -0.011333      0.003568
      4.95051      1.84851      8.97920         0.035223      0.004476      0.000971
      7.58459      6.45877      9.10886         0.008362      0.010094      0.010410
      8.93812      4.11503      9.10926         0.016712     -0.003434      0.007855
      4.94925      6.44006      8.97765        -0.009515     -0.017307      0.003728
      7.60467      1.84098      8.97774        -0.016295     -0.006195      0.002273
      6.23109      4.11395      9.04709        -0.013420     -0.011557     -0.003287
     10.29417      6.46003      9.05080        -0.026340     -0.020335      0.011222
      7.39461      4.79077     10.11177         0.010631      0.007556      0.008586
      9.14750      5.79178     10.11795         0.003626     -0.000728      0.008835
    total drift:                                0.068314     -0.057949     -0.211964

  FREE ENERGIE OF THE ION-ELECTRON SYSTEM (eV)
  free  energy   TOTEN  =      -556.92630052 eV

  energy  without entropy=     -556.88510091  energy(sigma->0) =     -556.91256732

 d Force = 0.6435312E-03[-0.333E-03, 0.162E-02]  d Energy = 0.7296695E-03-0.861E-04
 d Force = 0.7821422E+01[ 0.781E+01, 0.784E+01]  d Ewald  = 0.7821423E+01-0.116E-05

 Conjugate gradient step on ions:
 trial-energy change:   -0.000730  1 .order   -0.000644   -0.001620    0.000333
  (g-gl).g = 0.897E-03      g.g   = 0.113E-02  gl.gl    = 0.206E-02
 g(Force)  = 0.113E-02   g(Stress)= 0.000E+00 ortho     = 0.397E-05
 gamma     =   0.43425
 trial     =   1.43352
 opt step  =   1.23468  (harmonic =   1.18934) maximal distance =0.00576492
 next E    =  -556.926323   (d E  =  -0.00075)

 reached required accuracy - stopping structural energy minimisation