 vasp.5.4.4.18Apr17-6-g9f103f2a35 (build Nov 30 2020 22:55:02) complex

 executed on             LinuxIFC date 2023.09.08  21:33:33

 INCAR:
 POTCAR:    PAW_PBE Pt 04Feb2005
 POTCAR:    PAW_PBE Pt 04Feb2005
   VRHFIN =Pt: s1d9

   TITEL  = PAW_PBE Pt 04Feb2005
   POMASS =  195.080; ZVAL   =   10.000    mass and valenz
   ENMAX  =  230.283; ENMIN  =  172.712 eV

 Optimization of the real space projectors (new method)

 maximal supplied QI-value         = 14.36
 optimisation between [QCUT,QGAM] = [ 11.92, 23.98] = [ 39.79,161.09] Ry
 Optimized for a Real-space Cutoff    1.49 Angstroem

   l    n(q)    QCUT    max X(q) W(low)/X(q) W(high)/X(q)  e(spline)
   2     10    11.920    66.195    0.79E-04    0.18E-03    0.24E-06
   2     10    11.920    64.643    0.81E-04    0.19E-03    0.24E-06
   0     11    11.920    95.520    0.28E-04    0.54E-04    0.18E-06
   0     11    11.920    63.403    0.27E-04    0.52E-04    0.17E-06
   1     10    11.920    19.961    0.18E-04    0.11E-03    0.23E-06
   1     10    11.920    13.289    0.25E-04    0.87E-04    0.19E-06
  PAW_PBE Pt 04Feb2005                  :

 POSCAR: Pt111
  positions in direct lattice
  velocities in cartesian coordinates
 exchange correlation table for  LEXCH =        8
   RHO(1)=    0.500       N(1)  =     2000
   RHO(2)=  100.500       N(2)  =     4000

 ion  position               nearest neighbor table
   1  0.785  0.869  0.330-   3 2.74   2 2.74  73 2.74  56 2.74  43 2.74  72 2.74  71 2.77  20 2.77
                            55 2.77  27 2.81  35 2.81  34 2.81
   2  0.035  0.869  0.330-  57 2.74   3 2.74   1 2.74  23 2.74  47 2.74  72 2.74  55 2.77  65 2.77
                            68 2.77  29 2.81  27 2.81  39 2.81
   3  0.035  0.619  0.330-   2 2.74   1 2.74   9 2.74  56 2.74  15 2.74  57 2.74  12 2.77  55 2.77
                            76 2.77  39 2.81  28 2.81  35 2.82
   4  0.787  0.868  0.018-   5 2.74  58 2.74  75 2.74   6 2.74  74 2.74  44 2.74  21 2.81  78 2.81
                            19 2.82
   5  0.037  0.868  0.018-  74 2.74  48 2.74   4 2.74  24 2.74   6 2.74  59 2.75  49 2.81  70 2.81
                            78 2.82
   6  0.037  0.618  0.018-  18 2.74  59 2.74   4 2.74  58 2.74   5 2.74  10 2.74  70 2.81  46 2.81
                            21 2.82
   7  0.619  0.202  0.123-  78 2.74  19 2.74  11 2.74  53 2.74  61 2.74  22 2.74  71 2.76  79 2.77
                            80 2.77  42 2.81  44 2.81  74 2.82
   8  0.369  0.952  0.123-  54 2.74  25 2.74  49 2.74  19 2.74  60 2.74  53 2.74  66 2.76  69 2.77
                            26 2.77  16 2.81  24 2.81  75 2.82
   9  0.035  0.369  0.330-  15 2.74  47 2.74  13 2.74   3 2.74  56 2.74  63 2.74  12 2.77  77 2.77
                            62 2.77  33 2.81  30 2.81  28 2.82
  10  0.037  0.368  0.018-  64 2.74  48 2.74  18 2.74  16 2.74  58 2.74   6 2.74  54 2.81  46 2.81
                            45 2.82
  11  0.869  0.202  0.123-  22 2.74   7 2.74  54 2.74  78 2.74  49 2.74  45 2.74  65 2.77  77 2.77
                            79 2.77  64 2.81  74 2.81  48 2.82
  12  0.952  0.536  0.227-  62 2.74  55 2.74  76 2.74  67 2.74  20 2.74  77 2.74  21 2.77  45 2.77
                             3 2.77   9 2.77  46 2.77  56 2.77
  13  0.285  0.119  0.330-  15 2.74   9 2.74  73 2.74  47 2.74  23 2.74  43 2.74  62 2.77  26 2.77
                            69 2.77  31 2.81  36 2.81  33 2.82
  14  0.535  0.619  0.330-  23 2.74  56 2.74  73 2.74  57 2.74  63 2.74  41 2.74  51 2.77  66 2.77
                            67 2.77  52 2.81  38 2.81  37 2.82
  15  0.285  0.369  0.330-  13 2.74  41 2.74  43 2.74   9 2.74   3 2.74  57 2.74  62 2.77  76 2.77
                            80 2.77  50 2.81  36 2.81  28 2.82
  16  0.287  0.118  0.018-  44 2.74  75 2.74  18 2.74  24 2.74  48 2.74  10 2.74   8 2.81  53 2.81
                            54 2.82
  17  0.537  0.618  0.018-  24 2.74  59 2.74  42 2.74  64 2.74  58 2.74  75 2.74  22 2.81  25 2.81
                            60 2.82
  18  0.287  0.368  0.018-   6 2.74  59 2.74  10 2.74  44 2.74  16 2.74  42 2.74  53 2.81  61 2.81
                            46 2.82
  19  0.619  0.952  0.123-  78 2.74  21 2.74  25 2.74   7 2.74   8 2.74  53 2.74  20 2.77  71 2.77
                            69 2.77  44 2.81  75 2.81   4 2.82
  20  0.702  0.786  0.227-  66 2.74  71 2.74  69 2.74  67 2.74  55 2.74  12 2.74  19 2.77   1 2.77
                            56 2.77  25 2.77  21 2.77  73 2.77
  21  0.869  0.702  0.123-  19 2.74  45 2.74  25 2.74  78 2.74  46 2.74  70 2.74  12 2.77  55 2.77
                            20 2.77   4 2.81  58 2.81   6 2.82
  22  0.619  0.452  0.123-  45 2.74  61 2.74  11 2.74  25 2.74   7 2.74  60 2.74  79 2.76  67 2.77
                            51 2.77  17 2.81  42 2.81  64 2.82
  23  0.285  0.869  0.330-  14 2.74  57 2.74  73 2.74   2 2.74  13 2.74  47 2.74  68 2.77  26 2.77
                            66 2.77  31 2.81  37 2.81  29 2.82
  24  0.287  0.868  0.018-  17 2.74  59 2.74  48 2.74   5 2.74  16 2.74  75 2.74  60 2.81   8 2.81
                            49 2.82
  25  0.619  0.702  0.123-  21 2.74  45 2.74  19 2.74   8 2.74  22 2.74  60 2.74  67 2.77  20 2.77
                            66 2.77  17 2.81  75 2.81  58 2.82
  26  0.202  0.036  0.227-  77 2.74  65 2.74  68 2.74  62 2.74  66 2.74  69 2.74  54 2.76  49 2.77
                            23 2.77  13 2.77   8 2.77  47 2.77
  27  0.868  0.953  0.436-  29 2.73  39 2.74  34 2.74  32 2.74  40 2.74  35 2.74   1 2.81  72 2.81
                             2 2.81
  28  0.117  0.453  0.436-  39 2.74  50 2.74  30 2.74  33 2.74  35 2.74  36 2.74   3 2.81   9 2.82
                            15 2.82
  29  0.117  0.953  0.436-  27 2.73  31 2.74  39 2.74  32 2.74  37 2.74  33 2.74   2 2.81  47 2.81
                            23 2.82
  30  0.868  0.453  0.436-  33 2.74  32 2.74  35 2.74  28 2.74  52 2.74  38 2.74  63 2.81   9 2.81
                            56 2.81
  31  0.367  0.953  0.436-  33 2.74  37 2.74  36 2.74  29 2.74  52 2.74  34 2.75  23 2.81  13 2.81
                            73 2.82
  32  0.867  0.203  0.436-  30 2.74  38 2.74  33 2.74  27 2.74  29 2.74  40 2.74  63 2.81  72 2.81
                            47 2.82
  33  0.117  0.203  0.436-  30 2.74  31 2.74  36 2.74  32 2.74  28 2.74  29 2.74   9 2.81  47 2.81
                            13 2.82
  34  0.618  0.953  0.436-  35 2.74  36 2.74  40 2.74  27 2.74  52 2.74  31 2.75  73 2.81  43 2.81
                             1 2.81
  35  0.867  0.703  0.436-  52 2.74  34 2.74  30 2.74  28 2.74  27 2.74  39 2.74  56 2.81   1 2.81
                             3 2.82
  36  0.368  0.203  0.436-  31 2.74  34 2.74  33 2.74  40 2.74  50 2.74  28 2.74  13 2.81  15 2.81
                            43 2.82
  37  0.368  0.703  0.436-  52 2.74  31 2.74  38 2.74  29 2.74  50 2.74  39 2.74  23 2.81  57 2.81
                            14 2.82
  38  0.617  0.453  0.436-  40 2.74  32 2.74  37 2.74  50 2.74  52 2.74  30 2.74  41 2.81  14 2.81
                            63 2.82
  39  0.117  0.703  0.436-  28 2.74  50 2.74  29 2.74  27 2.74  35 2.74  37 2.74   3 2.81   2 2.81
                            57 2.81
  40  0.617  0.203  0.436-  38 2.74  34 2.74  36 2.74  50 2.74  32 2.74  27 2.74  41 2.81  43 2.81
                            72 2.82
  41  0.534  0.369  0.330-  57 2.74  15 2.74  43 2.74  63 2.74  72 2.74  14 2.74  80 2.77  51 2.77
                            79 2.77  40 2.81  38 2.81  50 2.82
  42  0.537  0.368  0.018-  74 2.74  44 2.74  64 2.74  17 2.74  59 2.74  18 2.74   7 2.81  22 2.81
                            61 2.82
  43  0.535  0.119  0.330-  41 2.74  15 2.74  72 2.74  13 2.74  73 2.74   1 2.74  80 2.76  69 2.77
                            71 2.77  40 2.81  34 2.81  36 2.82
  44  0.537  0.118  0.018-  16 2.74  42 2.74  75 2.74  74 2.74  18 2.74   4 2.74  19 2.81   7 2.81
                            53 2.82
  45  0.869  0.452  0.123-  22 2.74  21 2.74  25 2.74  46 2.74  11 2.74  54 2.74  77 2.77  12 2.77
                            67 2.77  58 2.81  64 2.81  10 2.82
  46  0.119  0.452  0.124-  53 2.74  45 2.74  54 2.74  21 2.74  70 2.74  61 2.74  62 2.76  76 2.77
                            12 2.77   6 2.81  10 2.81  18 2.82
  47  0.035  0.119  0.330-   9 2.74  13 2.74  72 2.74  23 2.74  63 2.74   2 2.74  77 2.77  65 2.77
                            26 2.77  29 2.81  33 2.81  32 2.82
  48  0.037  0.118  0.018-   5 2.74  10 2.74  24 2.74  74 2.74  16 2.74  64 2.74  49 2.81  54 2.81
                            11 2.82
  49  0.119  0.952  0.123-  70 2.74  60 2.74  54 2.74   8 2.74  11 2.74  78 2.74  68 2.77  26 2.77
                            65 2.77  48 2.81   5 2.81  24 2.82
  50  0.367  0.453  0.436-  28 2.74  39 2.74  40 2.74  38 2.74  37 2.74  36 2.74  15 2.81  57 2.81
                            41 2.82
  51  0.452  0.536  0.227-  80 2.74  67 2.74  76 2.74  79 2.74  68 2.74  66 2.74  60 2.76  41 2.77
                            61 2.77  14 2.77  22 2.77  57 2.77
  52  0.617  0.703  0.436-  35 2.74  37 2.74  38 2.74  34 2.74  30 2.74  31 2.74  14 2.81  73 2.81
                            56 2.82
  53  0.369  0.202  0.124-  46 2.74  54 2.74   7 2.74  61 2.74   8 2.74  19 2.74  69 2.76  80 2.77
                            62 2.77  18 2.81  16 2.81  44 2.82
  54  0.119  0.202  0.123-   8 2.74  49 2.74  53 2.74  11 2.74  46 2.74  45 2.74  26 2.76  62 2.77
                            77 2.77  10 2.81  48 2.81  16 2.82
  55  0.952  0.786  0.227-  12 2.74  76 2.74  68 2.74  65 2.74  20 2.74  71 2.74   2 2.77  78 2.77
                             3 2.77  21 2.77   1 2.77  70 2.77
  56  0.785  0.619  0.330-  14 2.74  73 2.74  63 2.74   3 2.74   1 2.74   9 2.74  67 2.77  20 2.77
                            12 2.77  35 2.81  30 2.81  52 2.82
  57  0.285  0.619  0.330-   2 2.74  41 2.74  23 2.74  14 2.74   3 2.74  15 2.74  68 2.77  76 2.77
                            51 2.77  37 2.81  50 2.81  39 2.81
  58  0.787  0.618  0.018-   4 2.74  75 2.74  64 2.74  17 2.74   6 2.74  10 2.74  21 2.81  45 2.81
                            25 2.82
  59  0.287  0.618  0.018-  18 2.74  17 2.74   6 2.74  24 2.74  42 2.74   5 2.75  61 2.81  60 2.81
                            70 2.82
  60  0.369  0.702  0.123-  70 2.74  61 2.74  49 2.74   8 2.74  22 2.74  25 2.74  51 2.76  66 2.77
                            68 2.77  24 2.81  59 2.81  17 2.82
  61  0.369  0.452  0.123-  60 2.74  22 2.74   7 2.74  53 2.74  70 2.74  46 2.74  80 2.77  51 2.77
                            76 2.77  59 2.81  18 2.81  42 2.82
  62  0.202  0.286  0.227-  12 2.74  77 2.74  76 2.74  26 2.74  80 2.74  69 2.74  46 2.76  13 2.77
                            15 2.77  54 2.77   9 2.77  53 2.77
  63  0.785  0.369  0.330-  72 2.74  56 2.74  14 2.74  41 2.74   9 2.74  47 2.74  67 2.77  79 2.77
                            77 2.77  32 2.81  30 2.81  38 2.82
  64  0.787  0.368  0.018-  10 2.74  42 2.74  58 2.74  17 2.74  48 2.74  74 2.74  11 2.81  45 2.81
                            22 2.82
  65  0.952  0.036  0.227-  77 2.74  26 2.74  79 2.74  68 2.74  55 2.74  71 2.74  11 2.77   2 2.77
                            47 2.77  78 2.77  72 2.77  49 2.77
[...]
   -.350E-02 -.135E+00 -.134E+04   -.478E-02 0.151E+00 0.134E+04   0.111E-01 0.425E-02 0.579E+00   -.119E-02 -.142E-01 -.706E-01
   0.210E+00 -.257E+00 0.265E+04   -.208E+00 0.194E+00 -.265E+04   -.298E-01 0.479E-01 -.896E+00   0.208E-01 0.230E-01 0.164E-01
   -.680E+00 0.140E+01 0.265E+04   0.681E+00 -.142E+01 -.265E+04   0.961E-02 -.458E-01 -.897E+00   -.789E-02 0.613E-01 0.228E-01
   0.175E+00 0.424E+00 0.265E+04   -.114E+00 -.472E+00 -.265E+04   -.395E-01 0.194E-01 -.909E+00   -.273E-01 0.351E-01 0.665E-02
   -.642E-02 -.730E-01 0.134E+04   -.321E-01 0.120E+00 -.134E+04   -.457E-03 0.592E-02 -.580E+00   0.453E-01 -.562E-01 -.727E-03
   0.141E+00 -.259E+00 0.134E+04   -.951E-01 0.213E+00 -.134E+04   -.867E-02 0.607E-02 -.582E+00   -.346E-01 0.408E-01 0.126E-01
   0.117E+00 0.139E+00 -.134E+04   -.114E+00 -.103E+00 0.134E+04   -.494E-02 -.569E-02 0.578E+00   0.674E-03 -.306E-01 -.888E-01
   -.993E+00 -.392E+00 0.265E+04   0.101E+01 0.394E+00 -.265E+04   0.246E-01 0.427E-01 -.904E+00   -.368E-01 -.358E-01 0.189E-01
   -.310E-01 -.218E-01 0.134E+04   0.393E-02 0.645E-01 -.134E+04   -.539E-02 0.105E-02 -.578E+00   0.330E-01 -.471E-01 0.616E-02
   0.292E-01 0.887E-01 -.500E+00   -.191E-01 -.590E-01 0.558E+00   -.359E-03 -.279E-02 -.377E-02   -.878E-02 -.278E-01 -.552E-01
   -.550E-01 0.643E-01 -.134E+04   0.646E-01 -.572E-01 0.134E+04   0.428E-02 0.437E-03 0.583E+00   -.173E-01 -.376E-02 -.805E-01
   -.899E-01 -.104E+00 -.134E+04   0.907E-01 0.921E-01 0.134E+04   0.264E-02 -.366E-02 0.583E+00   -.139E-02 0.183E-01 -.448E-01
   -.889E-01 0.176E+00 -.134E+04   0.103E+00 -.149E+00 0.134E+04   0.828E-02 -.626E-02 0.576E+00   -.208E-01 -.220E-01 -.577E-01
   0.632E+00 -.793E+00 0.265E+04   -.562E+00 0.788E+00 -.265E+04   -.436E-01 0.355E-01 -.905E+00   -.352E-01 -.213E-01 0.199E-01
   0.352E-01 0.558E-01 0.265E+04   -.672E-01 -.791E-01 -.265E+04   0.774E-02 0.954E-02 -.899E+00   0.263E-01 0.169E-01 -.145E-01
   0.122E+00 0.237E+00 0.265E+04   -.954E-01 -.192E+00 -.265E+04   0.140E-02 -.137E-01 -.908E+00   -.273E-01 -.318E-01 -.260E-02
   -.244E-02 -.469E-01 0.134E+04   -.192E-01 0.372E-01 -.134E+04   0.361E-02 0.205E-02 -.581E+00   0.224E-01 0.411E-02 -.806E-02
   -.296E-03 -.134E-01 0.724E+00   -.162E-02 0.773E-02 -.673E+00   0.763E-03 -.225E-02 0.709E-02   0.366E-02 0.800E-02 -.582E-01
   0.541E-01 0.559E-01 0.134E+04   -.488E-01 -.845E-01 -.134E+04   -.671E-02 0.661E-03 -.584E+00   0.448E-02 0.238E-01 -.217E-02
   0.179E-01 0.221E-01 0.134E+04   -.542E-01 0.132E-01 -.134E+04   -.626E-02 0.300E-02 -.584E+00   0.468E-01 -.427E-01 0.131E-01
   -.727E-01 0.623E-01 -.134E+04   0.628E-01 -.799E-01 0.134E+04   -.232E-04 -.672E-02 0.581E+00   0.747E-02 0.255E-01 -.720E-01
   0.805E-01 -.309E+00 0.265E+04   -.560E-01 0.228E+00 -.265E+04   -.655E-02 0.352E-01 -.898E+00   -.187E-01 0.552E-01 0.934E-02
   -.133E+00 0.771E-01 0.134E+04   0.110E+00 -.889E-01 -.134E+04   0.461E-02 -.602E-02 -.578E+00   0.267E-01 0.150E-01 0.201E-02
   0.388E-01 -.468E-03 -.756E-01   -.158E-01 -.133E-01 0.137E+00   0.594E-02 -.980E-02 -.105E-02   -.257E-01 0.202E-01 -.610E-01
   0.961E+00 -.200E+00 -.265E+04   -.934E+00 0.205E+00 0.265E+04   -.325E-01 -.248E-02 0.901E+00   -.211E-02 -.170E-02 0.841E-02
   0.570E+00 0.315E+00 -.265E+04   -.568E+00 -.272E+00 0.265E+04   -.202E-01 -.299E-01 0.896E+00   0.113E-01 -.136E-01 0.145E-03
   -.426E+00 -.268E+00 -.265E+04   0.350E+00 0.269E+00 0.265E+04   0.489E-01 0.123E-01 0.901E+00   0.349E-01 -.940E-02 -.614E-02
   0.895E+00 -.682E+00 -.265E+04   -.871E+00 0.656E+00 0.265E+04   -.249E-01 0.314E-01 0.895E+00   -.755E-02 0.410E-02 0.968E-03
   -.106E+01 0.724E+00 -.265E+04   0.101E+01 -.687E+00 0.265E+04   0.623E-01 -.320E-01 0.903E+00   -.927E-03 -.893E-02 -.432E-02
   0.391E+00 0.540E+00 -.265E+04   -.407E+00 -.523E+00 0.265E+04   0.175E-02 -.326E-01 0.907E+00   0.989E-02 0.126E-01 -.322E-02
   0.443E+00 0.563E+00 -.265E+04   -.458E+00 -.527E+00 0.265E+04   -.725E-02 -.230E-01 0.896E+00   0.190E-01 -.137E-01 -.159E-01
   0.120E+00 0.253E+00 -.265E+04   -.770E-01 -.238E+00 0.265E+04   -.168E-01 -.145E-01 0.910E+00   -.322E-01 -.928E-03 0.827E-02
   -.645E+00 -.583E+00 -.265E+04   0.603E+00 0.595E+00 0.265E+04   0.673E-01 -.267E-02 0.901E+00   -.177E-01 -.481E-02 0.776E-02
   -.554E+00 -.188E-01 -.265E+04   0.547E+00 0.624E-02 0.265E+04   0.171E-01 0.319E-01 0.894E+00   -.983E-02 -.101E-01 -.377E-02
   0.388E+00 -.159E-02 -.265E+04   -.377E+00 0.902E-02 0.265E+04   -.387E-01 -.111E-01 0.897E+00   0.203E-01 0.685E-02 0.857E-02
   -.641E+00 -.115E+00 -.265E+04   0.613E+00 0.878E-01 0.265E+04   0.351E-01 0.108E-01 0.899E+00   -.467E-02 0.237E-01 0.148E-01
   0.476E-01 -.101E+01 -.265E+04   -.838E-01 0.101E+01 0.265E+04   0.152E-01 0.277E-01 0.898E+00   0.211E-01 -.138E-01 0.764E-02
   -.466E+00 0.726E+00 -.265E+04   0.460E+00 -.715E+00 0.265E+04   0.226E-01 -.236E-01 0.901E+00   -.178E-01 0.125E-01 0.107E-01
   -.179E+00 0.306E+00 -.134E+04   0.163E+00 -.295E+00 0.134E+04   0.179E-01 -.157E-01 0.581E+00   -.177E-02 -.254E-03 -.562E-01
   0.113E+01 -.122E+01 0.265E+04   -.112E+01 0.121E+01 -.265E+04   -.559E-01 0.642E-01 -.903E+00   0.338E-01 -.479E-01 -.853E-02
   -.585E-01 0.163E-01 -.134E+04   0.865E-01 -.166E-01 0.134E+04   0.880E-03 -.138E-03 0.581E+00   -.301E-01 0.227E-02 -.656E-01
   0.459E+00 -.310E+00 0.265E+04   -.468E+00 0.347E+00 -.265E+04   -.115E-01 0.232E-02 -.895E+00   0.173E-01 -.387E-01 0.331E-02
   -.948E-01 0.426E-02 0.134E+04   0.817E-01 0.402E-01 -.134E+04   0.282E-02 -.150E-03 -.589E+00   0.109E-01 -.464E-01 0.117E-01
   -.956E-01 0.589E-01 0.134E+04   0.147E+00 -.442E-01 -.134E+04   0.171E-02 -.991E-03 -.587E+00   -.484E-01 -.179E-01 0.210E-01
   0.142E-01 -.476E-01 -.134E+04   -.500E-01 0.555E-01 0.134E+04   0.623E-02 -.448E-03 0.577E+00   0.278E-01 -.737E-03 -.113E+00
   -.508E+00 -.422E+00 0.265E+04   0.540E+00 0.409E+00 -.265E+04   -.159E-01 0.327E-01 -.905E+00   -.149E-01 -.123E-01 0.375E-01
   -.132E+00 -.564E-02 0.134E+04   0.155E+00 -.492E-01 -.134E+04   0.576E-02 -.631E-02 -.585E+00   -.216E-01 0.585E-01 0.103E-01
   -.102E+01 0.520E+00 -.265E+04   0.978E+00 -.502E+00 0.265E+04   0.441E-01 -.233E-01 0.900E+00   0.265E-02 0.410E-02 0.127E-01
   -.999E-02 0.856E-01 -.271E+00   0.672E-03 -.949E-01 0.301E+00   0.478E-02 -.186E-02 -.486E-02   0.686E-02 0.102E-01 -.264E-01
   -.107E+00 -.213E+00 -.265E+04   0.119E+00 0.207E+00 0.265E+04   0.884E-02 0.192E-02 0.904E+00   -.237E-01 0.953E-02 0.110E-01
   0.225E+00 0.610E-02 0.134E+04   -.187E+00 0.351E-01 -.134E+04   -.509E-02 -.681E-02 -.593E+00   -.352E-01 -.381E-01 0.154E-01
   -.183E+00 -.994E-02 0.134E+04   0.228E+00 0.289E-01 -.134E+04   0.531E-02 0.478E-02 -.579E+00   -.449E-01 -.293E-01 0.177E-01
   0.948E-02 -.441E-01 0.769E-01   -.231E-01 0.173E-01 -.772E-03   0.146E-02 -.138E-02 -.309E-02   0.138E-01 0.289E-01 -.735E-01
   0.239E-01 -.175E+00 -.134E+04   -.278E-01 0.187E+00 0.134E+04   0.882E-02 0.355E-02 0.585E+00   -.489E-02 -.107E-01 -.633E-01
   -.667E-01 -.862E-01 -.134E+04   0.552E-01 0.731E-01 0.134E+04   0.372E-02 0.255E-02 0.580E+00   0.687E-02 0.141E-01 -.527E-01
   -.249E+00 0.621E+00 0.265E+04   0.245E+00 -.618E+00 -.265E+04   -.103E-01 -.560E-02 -.898E+00   0.110E-01 0.260E-02 0.542E-02
   0.361E+00 -.338E-01 0.265E+04   -.335E+00 -.304E-01 -.265E+04   -.194E-01 0.259E-01 -.905E+00   -.845E-02 0.470E-01 -.779E-02
   0.826E-01 -.300E-01 0.134E+04   -.754E-01 -.390E-01 -.134E+04   0.634E-02 0.155E-03 -.589E+00   -.115E-01 0.634E-01 0.183E-01
[...]
   -.393E-01 0.616E-01 0.335E+00   0.181E-01 -.373E-01 -.290E+00   0.730E-03 0.153E-02 -.319E-02   0.220E-01 -.253E-01 -.444E-01
   0.304E-01 -.950E-01 -.510E+00   -.324E-01 0.366E-01 0.566E+00   0.400E-02 -.212E-02 -.590E-02   -.220E-03 0.619E-01 -.515E-01
   0.389E-02 0.235E-03 0.197E-02   0.312E-01 -.459E-02 0.480E-01   0.467E-02 -.347E-02 -.605E-02   -.366E-01 0.630E-02 -.466E-01
   -.105E+00 0.186E+00 0.134E+04   0.132E+00 -.252E+00 -.134E+04   0.300E-02 -.103E-01 -.583E+00   -.234E-01 0.699E-01 0.111E-01
   -.179E-01 -.291E-01 0.773E+00   -.805E-02 0.348E-01 -.707E+00   0.258E-02 -.224E-04 0.597E-02   0.260E-01 -.389E-02 -.754E-01
   0.606E-01 0.162E-01 -.134E+04   -.796E-01 -.922E-02 0.134E+04   -.270E-02 -.872E-02 0.583E+00   0.209E-01 0.403E-02 -.967E-01
   -.108E-01 0.103E+00 -.134E+04   0.337E-01 -.113E+00 0.134E+04   0.995E-03 -.583E-02 0.578E+00   -.276E-01 0.158E-01 -.534E-01
   -.182E+00 -.272E+00 0.265E+04   0.148E+00 0.292E+00 -.265E+04   -.817E-03 0.174E-01 -.893E+00   0.346E-01 -.339E-01 0.282E-01
   0.759E+00 0.813E-01 0.265E+04   -.732E+00 -.995E-01 -.265E+04   -.430E-01 -.195E-03 -.906E+00   0.809E-02 0.195E-01 0.250E-02
   0.542E-01 0.571E-01 -.966E+00   -.335E-01 -.600E-01 0.101E+01   0.762E-03 -.296E-02 -.719E-02   -.208E-01 0.400E-02 -.342E-01
   -.456E-01 0.717E-01 -.199E+00   0.320E-01 -.291E-01 0.270E+00   0.866E-02 0.280E-02 -.330E-02   0.833E-02 -.444E-01 -.698E-01
   -.901E-01 0.103E-01 0.134E+04   0.556E-01 -.348E-01 -.134E+04   0.517E-02 -.394E-02 -.586E+00   0.315E-01 0.263E-01 -.805E-02
   0.239E-01 0.773E-01 0.826E+00   -.666E-01 -.428E-01 -.769E+00   -.199E-02 0.485E-02 0.710E-02   0.460E-01 -.367E-01 -.637E-01
   -.247E-01 0.737E-01 -.443E+00   0.358E-01 -.457E-01 0.481E+00   0.523E-02 -.325E-02 -.318E-02   -.127E-01 -.251E-01 -.332E-01
   -.535E-02 -.115E-01 0.169E+01   0.575E-12 -.595E-12 -.360E-11   0.201E-01 0.947E-01 -.109E+00   -.124E-02 0.196E-02 -.167E+01

 POSITION                                       TOTAL-FORCE (eV/Angst)
     13.36390      8.25179      7.26098        -0.001878     -0.002378      0.027749
      5.14387      8.25039      7.26188        -0.002043     -0.000823      0.028113
      3.77257      5.87826      7.26394         0.001561      0.004963      0.029240
     13.38150      8.23574      0.38621        -0.007146      0.006931     -0.023019
      5.15902      8.24109      0.38883         0.001688     -0.005941     -0.024434
      3.79191      5.86420      0.39106        -0.006671      0.004627     -0.033453
      7.89386      1.91469      2.71065         0.006396     -0.004560     -0.030210
      9.26421      9.03339      2.71123         0.001945     -0.000251     -0.029938
      2.40376      3.50585      7.26374        -0.000641     -0.001188      0.028307
      2.41851      3.49024      0.39204         0.002813      0.008634     -0.030775
     10.63412      1.91518      2.70948         0.000277     -0.004406     -0.029724
     13.36886      5.08437      4.98767         0.000847     -0.002133      0.000052
      3.77357      1.13268      7.26299        -0.003843      0.002930      0.032192
      9.25344      5.87908      7.26190         0.002113      0.001584      0.030264
      5.14291      3.50574      7.26524         0.001545     -0.001784      0.029355
      3.79233      1.11763      0.39018        -0.009473      0.008498     -0.027875
      9.26889      5.86531      0.38935         0.001228      0.002343     -0.027598
      5.15939      3.49349      0.39193         0.000165     -0.000652     -0.032467
     12.00351      9.03388      2.70970         0.004829     -0.004414     -0.030122
     11.99883      7.45725      4.98526         0.002494     -0.001014      0.001452
     13.37411      6.66107      2.71155         0.002971     -0.005212     -0.032313
      9.26446      4.28804      2.71116         0.004195     -0.005737     -0.030824
      7.88383      8.25182      7.26270        -0.002765      0.000138      0.028284
      7.89987      8.23616      0.38959        -0.001517      0.008657     -0.025072
     10.63342      6.66146      2.71017         0.007755     -0.003741     -0.028056
      2.40883      0.33854      4.98697         0.002805     -0.004275      0.000360
     14.73089      9.04493      9.58156        -0.007389     -0.000621      0.032382
      3.77008      4.30046      9.58909        -0.006564     -0.001669      0.023913
      6.50583      9.04376      9.58462         0.007253      0.002922      0.031206
     11.99051      4.29718      9.58450        -0.007283      0.008397      0.028639
      9.24522      9.04635      9.58613         0.008524     -0.004270      0.028053
     10.61906      1.92799      9.58494        -0.004082     -0.003155      0.031326
      2.39965      1.92715      9.58585        -0.003669     -0.001586      0.028697
     11.99025      9.04557      9.58301        -0.005055     -0.001478      0.033761
     13.35468      6.67223      9.58452         0.007041      0.003581      0.029797
      5.13849      1.92355      9.58679        -0.000023      0.007494      0.023158
      7.88127      6.67246      9.58586        -0.006571      0.002229      0.025318
      9.24717      4.29853      9.58389         0.001561      0.005570      0.029762
      5.13780      6.67031      9.58639         0.000243      0.006567      0.029059
      7.87821      1.92751      9.58262        -0.001364     -0.001287      0.031359
      7.88218      3.50704      7.26221        -0.000262     -0.005698      0.028488
      7.90305      3.48916      0.38881        -0.008549      0.009940     -0.028914
      6.51372      1.13306      7.26170        -0.001408      0.000866      0.029493
      6.53027      1.12007      0.38789        -0.003137      0.000654     -0.022729
     12.00380      4.28841      2.71272         0.000344     -0.003328     -0.034703
      3.78375      4.28815      2.71436         0.003927     -0.005228     -0.032678
      1.03344      1.13258      7.26310        -0.001804      0.005670      0.025792
      1.05114      1.11762      0.38753        -0.000114      0.006811     -0.026925
      6.52353      9.03418      2.71203         0.006007     -0.003394     -0.031743
      6.50676      4.30011      9.58848         0.003001     -0.001387      0.026408
      7.88908      5.08437      4.98730         0.001869     -0.002354     -0.000899
     10.61843      6.67167      9.58446        -0.002607      0.004246      0.029544
      5.15415      1.91566      2.71356        -0.002287     -0.004645     -0.035352
      2.41373      1.91461      2.71243         0.005239     -0.006517     -0.027970
     14.73908      7.45682      4.98673         0.001367     -0.000319      0.000907
     11.99272      5.87835      7.26154         0.000315      0.003871      0.031899
      6.51345      5.87858      7.26424        -0.001083      0.002369      0.030644
     12.01044      5.86600      0.38831        -0.003508      0.000154     -0.023363
      6.53047      5.86404      0.39020        -0.002733      0.007760     -0.028443
      7.89334      6.66104      2.71310         0.001731     -0.006189     -0.034711
[...]
      9.25957      7.45756      4.98619         0.000329     -0.003015      0.002736
     10.62867      5.08432      4.98627         0.001616     -0.000896     -0.000358
      6.51931      7.45699      4.98774         0.001141      0.000280     -0.000227
      5.14874      0.33833      4.98695         0.002997     -0.002526     -0.001327
      5.15388      6.66196      2.71258         0.006525     -0.007372     -0.029532
      7.88857      0.33820      4.98524         0.002859      0.000765     -0.001300
      9.25390      1.13356      7.26077        -0.000785      0.001115      0.029396
     10.62373      8.25207      7.26272        -0.003859     -0.000681      0.026094
      9.26989      1.11896      0.38524        -0.000621      0.003049     -0.019795
     10.64212      8.23840      0.38582        -0.007776      0.000676     -0.026142
      5.14927      5.08426      4.98856         0.000118     -0.003038      0.000198
     11.99826      2.71097      4.98714         0.003198     -0.000240     -0.000310
     14.74299      9.03449      2.71076         0.002083     -0.002996     -0.033445
      9.25877      2.71110      4.98516         0.001462      0.001220      0.002337
      6.51854      2.71150      4.98751         0.003506     -0.001532      0.001828
    total drift:                                0.013512      0.085158     -0.096844

  FREE ENERGIE OF THE ION-ELECTRON SYSTEM (eV)
  free  energy   TOTEN  =      -515.35983025 eV

  energy  without entropy=     -515.12549916  energy(sigma->0) =     -515.28171989

 d Force = 0.6618666E-02[ 0.397E-02, 0.927E-02]  d Energy = 0.6784961E-02-0.166E-03
 d Force = 0.1890721E+03[ 0.189E+03, 0.189E+03]  d Ewald  = 0.1890721E+03-0.832E-05

 Steepest descent step on ions:
 trial-energy change:   -0.006785  1 .order   -0.006619   -0.009272   -0.003965
  (g-gl).g = 0.927E-02      g.g   = 0.927E-02  gl.gl    = 0.000E+00
 g(Force)  = 0.927E-02   g(Stress)= 0.000E+00 ortho     = 0.000E+00
 gamma     =   0.00000
 trial     =   1.00000
 opt step  =   1.57634  (harmonic =   1.74714) maximal distance =0.00632658
 next E    =  -515.361005   (d E  =  -0.00796)

 reached required accuracy - stopping structural energy minimisation