 vasp.5.4.4.18Apr17-6-g9f103f2a35 (build Nov 30 2020 22:55:02) complex

 executed on             LinuxIFC date 2023.09.08  21:34:52

 INCAR:
 POTCAR:    PAW_PBE Pt 04Feb2005
 POTCAR:    PAW_PBE H 15Jun2001
 POTCAR:    PAW_PBE Pt 04Feb2005
   VRHFIN =Pt: s1d9

   TITEL  = PAW_PBE Pt 04Feb2005
   POMASS =  195.080; ZVAL   =   10.000    mass and valenz
   ENMAX  =  230.283; ENMIN  =  172.712 eV

 POTCAR:    PAW_PBE H 15Jun2001
   VRHFIN =H: ultrasoft test

   TITEL  = PAW_PBE H 15Jun2001
   POMASS =    1.000; ZVAL   =    1.000    mass and valenz
   ENMAX  =  250.000; ENMIN  =  200.000 eV

 Optimization of the real space projectors (new method)

 maximal supplied QI-value         = 14.36
 optimisation between [QCUT,QGAM] = [ 11.92, 23.98] = [ 39.79,161.09] Ry
 Optimized for a Real-space Cutoff    1.49 Angstroem

   l    n(q)    QCUT    max X(q) W(low)/X(q) W(high)/X(q)  e(spline)
   2     10    11.920    66.195    0.79E-04    0.18E-03    0.24E-06
   2     10    11.920    64.643    0.81E-04    0.19E-03    0.24E-06
   0     11    11.920    95.520    0.28E-04    0.54E-04    0.18E-06
   0     11    11.920    63.403    0.27E-04    0.52E-04    0.17E-06
   1     10    11.920    19.961    0.18E-04    0.11E-03    0.23E-06
   1     10    11.920    13.289    0.25E-04    0.87E-04    0.19E-06
 Optimization of the real space projectors (new method)

 maximal supplied QI-value         = 34.20
 optimisation between [QCUT,QGAM] = [ 11.97, 23.94] = [ 40.13,160.53] Ry
 Optimized for a Real-space Cutoff    1.18 Angstroem

   l    n(q)    QCUT    max X(q) W(low)/X(q) W(high)/X(q)  e(spline)
   0      8    11.971    19.460    0.15E-03    0.31E-03    0.25E-06
   0      8    11.971    12.209    0.13E-03    0.29E-03    0.25E-06
   1      8    11.971     4.655    0.22E-03    0.24E-03    0.21E-06
  PAW_PBE Pt 04Feb2005                  :
  PAW_PBE H 15Jun2001                   :

 POSCAR: Pt111
  positions in direct lattice
  velocities in cartesian coordinates
 exchange correlation table for  LEXCH =        8
   RHO(1)=    0.500       N(1)  =     2000
   RHO(2)=  100.500       N(2)  =     4000

 ion  position               nearest neighbor table
   1  0.784  0.870  0.331-  56 2.72  73 2.72   3 2.72   2 2.72  43 2.72  72 2.72  71 2.78  20 2.79
                            55 2.79  35 2.83  27 2.83  34 2.84
   2  0.034  0.870  0.331-  23 2.71  72 2.71   1 2.72  47 2.72  57 2.72   3 2.72  65 2.77  55 2.78
                            68 2.78  39 2.80  29 2.82  27 2.84
   3  0.035  0.619  0.331-  15 2.71   9 2.72   1 2.72  56 2.72   2 2.72  57 2.72  12 2.78  55 2.78
                            76 2.78  39 2.81  28 2.83  35 2.84
   4  0.787  0.867  0.015-  58 2.71   5 2.71  75 2.71   6 2.71  74 2.72  44 2.72  21 2.82  78 2.82
                            19 2.83
   5  0.037  0.868  0.015-  48 2.71  74 2.71   4 2.71  24 2.72   6 2.72  59 2.72  70 2.82  49 2.82
                            78 2.83
   6  0.037  0.618  0.015-  18 2.71  59 2.71   4 2.71  58 2.72   5 2.72  10 2.72  46 2.82  70 2.82
                            21 2.83
   7  0.619  0.202  0.122-  78 2.71  19 2.71  11 2.71  61 2.71  53 2.72  22 2.72  71 2.78  79 2.78
                            80 2.79  42 2.82  44 2.82  74 2.83
   8  0.369  0.952  0.122-  54 2.71  49 2.71  60 2.72  25 2.72  19 2.72  53 2.72  66 2.78  69 2.78
                            26 2.78  16 2.82  24 2.82  75 2.83
   9  0.034  0.370  0.331-  13 2.71  47 2.71  56 2.71   3 2.72  63 2.72  15 2.72  12 2.78  77 2.78
                            62 2.79  33 2.82  28 2.83  30 2.83
  10  0.037  0.367  0.016-  64 2.71  48 2.71  16 2.72  18 2.72  58 2.72   6 2.72  54 2.82  46 2.83
                            45 2.83
  11  0.869  0.202  0.122-  22 2.71   7 2.71  54 2.72  78 2.72  49 2.72  45 2.72  77 2.78  65 2.78
                            79 2.79  64 2.82  74 2.83  48 2.83
  12  0.952  0.536  0.227-  55 2.71  20 2.71  62 2.72  77 2.72  76 2.72  67 2.72   3 2.78   9 2.78
                            45 2.78  21 2.78  56 2.78  46 2.79
  13  0.284  0.120  0.331-   9 2.71  47 2.71  43 2.72  73 2.72  15 2.72  23 2.72  62 2.77  26 2.78
                            69 2.79  31 2.82  36 2.83  33 2.83
  14  0.534  0.620  0.332-  57 2.71  41 2.71  23 2.71  63 2.71  73 2.72  56 2.72  51 2.78  66 2.79
                            67 2.80  52 2.82  38 2.86  37 2.86
  15  0.285  0.370  0.332-  41 2.71  57 2.71  43 2.71   3 2.71  13 2.72   9 2.72  76 2.78  80 2.79
                            62 2.80  36 2.82  28 2.83  50 2.83
  16  0.287  0.118  0.016-  44 2.71  75 2.71  10 2.72  18 2.72  48 2.72  24 2.72   8 2.82  53 2.82
                            54 2.83
  17  0.537  0.618  0.015-  24 2.71  59 2.71  64 2.72  42 2.72  58 2.72  75 2.72  22 2.82  25 2.82
                            60 2.83
  18  0.287  0.368  0.016-   6 2.71  59 2.71  44 2.72  10 2.72  16 2.72  42 2.72  53 2.82  61 2.82
                            46 2.83
  19  0.619  0.952  0.122-  78 2.71  25 2.71  21 2.71   7 2.71   8 2.72  53 2.72  20 2.78  71 2.78
                            69 2.79  44 2.82  75 2.82   4 2.83
  20  0.702  0.786  0.227-  71 2.71  69 2.71  12 2.71  55 2.72  66 2.72  67 2.72  56 2.78  19 2.78
                            25 2.78  73 2.78   1 2.79  21 2.79
  21  0.869  0.702  0.122-  25 2.71  78 2.71  19 2.71  45 2.71  46 2.72  70 2.72  55 2.78  12 2.78
                            20 2.79   4 2.82  58 2.82   6 2.83
  22  0.620  0.452  0.122-  11 2.71  45 2.71  61 2.71  25 2.72  60 2.72   7 2.72  79 2.78  67 2.78
                            51 2.79  17 2.82  42 2.82  64 2.83
  23  0.285  0.869  0.331-  57 2.71  14 2.71  73 2.71   2 2.71  47 2.72  13 2.72  68 2.78  26 2.79
                            66 2.79  31 2.82  29 2.82  37 2.83
  24  0.287  0.867  0.015-  17 2.71  59 2.71  48 2.72   5 2.72  16 2.72  75 2.72  60 2.82   8 2.82
                            49 2.83
  25  0.619  0.702  0.122-  19 2.71  45 2.71  21 2.71   8 2.72  22 2.72  60 2.72  20 2.78  67 2.78
                            66 2.79  17 2.82  75 2.82  58 2.83
  26  0.202  0.036  0.226-  62 2.71  77 2.71  69 2.72  65 2.72  66 2.72  68 2.72  54 2.77  49 2.78
                             8 2.78  13 2.78  47 2.79  23 2.79
  27  0.867  0.954  0.439-  39 2.69  40 2.69  32 2.71  29 2.71  34 2.72  35 2.72  72 2.83   1 2.83
                             2 2.84
  28  0.117  0.454  0.438-  50 2.69  30 2.71  35 2.71  33 2.71  36 2.72  39 2.72   3 2.83  15 2.83
                             9 2.83
  29  0.116  0.955  0.438-  37 2.69  32 2.71  33 2.71  27 2.71  39 2.72  31 2.72  47 2.82  23 2.82
                             2 2.82
  30  0.867  0.454  0.438-  38 2.69  28 2.71  35 2.71  33 2.71  52 2.72  32 2.72  56 2.83  63 2.83
                             9 2.83
  31  0.367  0.955  0.438-  37 2.69  34 2.71  36 2.71  33 2.71  52 2.72  29 2.72  13 2.82  23 2.82
                            73 2.83
  32  0.867  0.204  0.438-  38 2.69  29 2.71  40 2.71  27 2.71  33 2.72  30 2.72  63 2.82  72 2.83
                            47 2.83
  33  0.117  0.204  0.438-  29 2.71  30 2.71  31 2.71  28 2.71  32 2.72  36 2.72   9 2.82  47 2.83
                            13 2.83
  34  0.617  0.954  0.439-  52 2.69  40 2.69  31 2.71  36 2.71  27 2.72  35 2.72  43 2.83   1 2.84
                            73 2.84
  35  0.867  0.703  0.438-  39 2.69  52 2.69  30 2.71  28 2.71  27 2.72  34 2.72   1 2.83  56 2.84
                             3 2.84
  36  0.367  0.204  0.438-  50 2.69  31 2.71  34 2.71  40 2.71  28 2.72  33 2.72  15 2.82  43 2.83
                            13 2.83
  37  0.365  0.708  0.440-  81 1.86  29 2.69  31 2.69  39 2.74  52 2.74  50 2.77  38 2.78  23 2.83
                            57 2.86  14 2.86
  38  0.621  0.453  0.440-  81 1.85  30 2.69  32 2.69  52 2.74  40 2.74  37 2.78  50 2.78  63 2.84
                            14 2.86  41 2.86
  39  0.114  0.706  0.437-  27 2.69  35 2.69  29 2.72  28 2.72  37 2.74  50 2.74   2 2.80   3 2.81
                            57 2.83
  40  0.618  0.201  0.438-  27 2.69  34 2.69  32 2.71  36 2.71  50 2.74  38 2.74  43 2.81  41 2.82
                            72 2.82
  41  0.534  0.370  0.332-  63 2.71  15 2.71  14 2.71  57 2.71  72 2.72  43 2.72  51 2.78  80 2.79
                            79 2.80  40 2.82  38 2.86  50 2.87
  42  0.538  0.367  0.015-  74 2.71  44 2.71  64 2.71  17 2.72  59 2.72  18 2.72   7 2.82  22 2.82
                            61 2.83
  43  0.534  0.120  0.331-  15 2.71  73 2.71  13 2.72  72 2.72   1 2.72  41 2.72  80 2.78  69 2.78
                            71 2.79  40 2.81  36 2.83  34 2.83
  44  0.537  0.118  0.015-  16 2.71  42 2.71  75 2.71  74 2.71  18 2.72   4 2.72  19 2.82   7 2.82
                            53 2.83
  45  0.869  0.452  0.122-  22 2.71  25 2.71  21 2.71  46 2.72  11 2.72  54 2.72  77 2.78  12 2.78
                            67 2.79  58 2.82  64 2.82  10 2.83
  46  0.119  0.452  0.122-  53 2.71  45 2.72  21 2.72  54 2.72  61 2.72  70 2.72  62 2.78  76 2.78
                            12 2.79   6 2.82  10 2.83  18 2.83
  47  0.034  0.120  0.331-   9 2.71  13 2.71  72 2.72   2 2.72  63 2.72  23 2.72  77 2.77  65 2.78
                            26 2.79  29 2.82  33 2.83  32 2.83
  48  0.037  0.118  0.015-   5 2.71  10 2.71  24 2.72  74 2.72  64 2.72  16 2.72  49 2.82  54 2.83
                            11 2.83
  49  0.119  0.952  0.122-  70 2.71  54 2.71   8 2.71  60 2.71  11 2.72  78 2.72  26 2.78  68 2.78
                            65 2.79  48 2.82   5 2.82  24 2.83
  50  0.365  0.453  0.440-  81 1.87  36 2.69  28 2.69  39 2.74  40 2.74  37 2.77  38 2.78  15 2.83
                            57 2.86  41 2.87
  51  0.452  0.536  0.227-  80 2.71  76 2.71  67 2.71  79 2.71  66 2.71  68 2.71  14 2.78  41 2.78
                            60 2.78  61 2.78  57 2.79  22 2.79
  52  0.618  0.706  0.437-  34 2.69  35 2.69  31 2.72  30 2.72  38 2.74  37 2.74  73 2.80  56 2.81
                            14 2.82
  53  0.369  0.202  0.122-  46 2.71  54 2.71   7 2.72   8 2.72  61 2.72  19 2.72  69 2.78  80 2.78
                            62 2.78  18 2.82  16 2.82  44 2.83
  54  0.119  0.202  0.122-  49 2.71   8 2.71  53 2.71  11 2.72  46 2.72  45 2.72  26 2.77  62 2.78
                            77 2.78  10 2.82  48 2.83  16 2.83
  55  0.952  0.786  0.227-  12 2.71  65 2.71  71 2.72  20 2.72  68 2.72  76 2.72   3 2.78   2 2.78
                            21 2.78  78 2.78  70 2.79   1 2.79
  56  0.784  0.619  0.331-  63 2.71   9 2.71   1 2.72   3 2.72  73 2.72  14 2.72  20 2.78  67 2.78
                            12 2.78  52 2.81  30 2.83  35 2.84
  57  0.285  0.620  0.332-  14 2.71  41 2.71  23 2.71  15 2.71   2 2.72   3 2.72  68 2.79  51 2.79
                            76 2.79  39 2.83  50 2.86  37 2.86
  58  0.787  0.618  0.015-   4 2.71  75 2.71  64 2.71   6 2.72  17 2.72  10 2.72  21 2.82  45 2.82
                            25 2.83
  59  0.287  0.618  0.015-  17 2.71  24 2.71  18 2.71   6 2.71  42 2.72   5 2.72  61 2.82  60 2.82
                            70 2.83
  60  0.369  0.702  0.122-  70 2.71  61 2.71  49 2.71   8 2.72  22 2.72  25 2.72  66 2.78  51 2.78
                            68 2.78  24 2.82  59 2.82  17 2.83
[...]
   -.720E+00 0.378E+00 -.133E+04   0.739E+00 -.514E+00 0.133E+04   -.327E-01 0.645E-02 0.577E+00   0.169E-01 0.128E+00 -.781E-01
   0.105E+00 -.212E+00 0.266E+04   -.964E-01 0.250E+00 -.266E+04   -.270E-01 0.586E-01 -.742E+00   0.158E-01 -.861E-01 0.817E-01
   -.110E+01 0.210E+01 0.266E+04   0.113E+01 -.195E+01 -.266E+04   0.362E-01 -.895E-01 -.730E+00   -.335E-01 -.852E-01 0.770E-01
   -.974E-01 0.617E+00 0.265E+04   0.132E+00 -.706E+00 -.265E+04   -.181E-01 0.192E-01 -.740E+00   -.112E-01 0.541E-01 0.815E-01
   0.201E+00 -.240E+01 0.134E+04   -.244E+00 0.241E+01 -.134E+04   -.592E-02 0.343E-01 -.521E+00   0.451E-01 -.763E-02 0.691E-01
   -.252E+00 0.187E+01 0.134E+04   0.236E+00 -.169E+01 -.134E+04   0.928E-03 -.331E-01 -.503E+00   0.956E-02 -.151E+00 0.998E-01
   0.283E-01 0.616E-01 -.133E+04   -.285E-01 -.115E+00 0.133E+04   0.211E-02 -.808E-02 0.544E+00   -.237E-02 0.610E-01 -.187E-01
   -.142E+01 -.836E+00 0.265E+04   0.142E+01 0.669E+00 -.265E+04   0.442E-01 0.677E-01 -.658E+00   -.291E-01 0.118E+00 0.204E-01
   0.113E+01 -.689E+00 0.135E+04   -.103E+01 0.679E+00 -.135E+04   -.280E-01 0.192E-01 -.508E+00   -.511E-01 0.337E-03 0.729E-01
   -.196E+00 0.501E+00 0.494E+01   0.194E+00 -.670E+00 -.488E+01   0.144E-02 0.299E-02 -.366E-01   0.182E-02 0.169E+00 -.165E-01
   0.113E-01 0.143E+00 -.133E+04   -.178E-01 -.487E-01 0.133E+04   -.657E-03 0.158E-02 0.548E+00   0.538E-02 -.919E-01 0.161E-01
   0.224E+01 0.111E+01 -.136E+04   -.232E+01 -.122E+01 0.136E+04   0.823E-01 0.446E-01 0.473E+00   -.105E-01 0.774E-01 -.100E+00
   -.784E+00 -.284E+00 -.134E+04   0.973E+00 0.350E+00 0.134E+04   -.202E+00 -.122E+00 0.337E+00   0.205E-01 0.640E-01 -.242E-01
   0.861E+00 -.805E+00 0.266E+04   -.830E+00 0.797E+00 -.265E+04   -.395E-01 0.325E-01 -.666E+00   0.510E-02 -.241E-01 -.407E-02
   0.280E+00 -.408E-01 0.265E+04   -.286E+00 0.343E-01 -.265E+04   0.685E-02 0.936E-02 -.740E+00   0.998E-02 -.773E-02 0.720E-01
   -.166E+00 -.143E+00 0.265E+04   0.105E+00 0.292E-01 -.265E+04   0.264E-01 -.181E-01 -.593E+00   0.264E-01 0.108E+00 0.171E-01
   0.798E+00 -.371E+00 0.135E+04   -.875E+00 0.507E+00 -.135E+04   -.120E-01 0.161E-01 -.533E+00   0.664E-01 -.140E+00 0.103E+00
   0.119E+01 0.560E+00 0.557E+01   -.125E+01 -.539E+00 -.557E+01   0.104E-01 0.143E-01 0.181E-02   0.499E-01 -.308E-01 0.101E-01
   -.554E+00 0.739E+00 0.135E+04   0.557E+00 -.789E+00 -.135E+04   0.164E-02 -.655E-03 -.533E+00   0.125E-01 0.238E-01 0.982E-01
   0.281E+01 -.172E+01 0.134E+04   -.281E+01 0.162E+01 -.134E+04   -.453E-01 0.268E-01 -.408E+00   0.363E-02 0.969E-01 0.565E-01
   -.257E+00 0.959E+00 -.134E+04   0.282E+00 -.115E+01 0.134E+04   0.470E-02 0.231E+00 0.343E+00   -.322E-01 -.488E-01 -.511E-01
   -.580E-01 0.848E-01 0.265E+04   0.775E-01 0.332E-01 -.265E+04   0.312E-02 0.246E-01 -.580E+00   -.156E-01 -.115E+00 0.495E-01
   0.230E+01 0.845E+00 0.134E+04   -.234E+01 -.817E+00 -.134E+04   -.322E-01 -.576E-02 -.511E+00   0.276E-01 -.319E-01 0.818E-01
   0.403E-01 0.230E+01 0.468E+01   0.465E-02 -.219E+01 -.478E+01   0.460E-03 0.109E-01 0.472E-01   -.463E-01 -.139E+00 0.599E-01
   -.408E+00 -.363E+00 -.265E+04   0.391E+00 0.403E+00 0.265E+04   0.139E-01 -.115E-01 0.576E+00   0.623E-02 -.252E-01 -.786E-01
   0.548E+01 0.265E+01 -.264E+04   -.543E+01 -.267E+01 0.264E+04   -.529E-01 -.352E-01 0.599E+00   0.187E-02 0.461E-01 -.242E-01
   0.414E+00 -.590E+01 -.264E+04   -.368E+00 0.589E+01 0.264E+04   -.876E-02 0.465E-01 0.601E+00   -.385E-01 -.284E-01 -.619E-01
   -.511E+01 0.260E+01 -.264E+04   0.502E+01 -.259E+01 0.264E+04   0.652E-01 -.374E-01 0.601E+00   0.177E-01 0.250E-01 -.237E-01
   -.640E+00 -.569E+01 -.264E+04   0.599E+00 0.567E+01 0.264E+04   0.314E-01 0.458E-01 0.606E+00   0.830E-02 -.241E-01 -.496E-01
   -.469E+01 0.349E+01 -.264E+04   0.466E+01 -.334E+01 0.264E+04   0.446E-01 -.536E-01 0.604E+00   -.165E-01 -.875E-01 -.277E-01
   0.742E-01 0.365E+00 -.264E+04   -.755E-01 -.296E+00 0.264E+04   0.823E-02 -.217E-01 0.646E+00   -.796E-02 -.500E-01 -.594E-02
   0.439E+00 -.345E-01 -.265E+04   -.465E+00 0.709E-01 0.265E+04   -.165E-03 -.140E-01 0.576E+00   0.213E-01 -.213E-01 -.634E-01
   0.309E+00 0.250E+00 -.265E+04   -.340E+00 -.301E+00 0.265E+04   0.180E-02 -.116E-01 0.576E+00   0.256E-01 0.648E-01 -.786E-01
   0.478E+01 0.388E+01 -.264E+04   -.476E+01 -.376E+01 0.264E+04   -.317E-01 -.630E-01 0.607E+00   0.106E-01 -.561E-01 -.130E-01
   -.414E+00 -.118E+02 -.265E+04   0.419E+00 0.125E+02 0.265E+04   0.164E-01 -.793E+00 0.179E+00   -.235E-01 0.743E-01 -.743E-01
   -.101E+02 0.587E+01 -.264E+04   0.108E+02 -.625E+01 0.264E+04   -.681E+00 0.386E+00 0.150E+00   0.554E-02 0.729E-02 -.442E-01
   -.183E+01 0.878E+00 -.264E+04   0.155E+01 -.761E+00 0.264E+04   0.308E+00 -.188E+00 0.732E+00   -.209E-01 0.720E-01 -.790E-01
   -.401E+00 -.187E+01 -.264E+04   0.374E+00 0.164E+01 0.264E+04   0.148E-01 0.328E+00 0.740E+00   0.106E-01 -.923E-01 -.348E-01
   -.727E-01 -.258E+01 -.136E+04   0.572E-01 0.266E+01 0.136E+04   0.473E-02 -.100E+00 0.464E+00   0.894E-02 0.182E-01 -.649E-01
   0.133E+01 -.199E+01 0.265E+04   -.130E+01 0.184E+01 -.265E+04   -.693E-01 0.881E-01 -.737E+00   0.298E-01 0.790E-01 0.341E-01
   0.102E+00 -.795E+00 -.133E+04   -.146E+00 0.945E+00 0.133E+04   -.914E-02 -.504E-01 0.579E+00   0.508E-01 -.949E-01 0.135E-02
   0.375E+00 -.609E+00 0.266E+04   -.442E+00 0.630E+00 -.266E+04   0.140E-01 0.123E-01 -.726E+00   0.538E-01 -.268E-01 0.195E-01
   0.108E+01 -.614E+00 0.134E+04   -.103E+01 0.431E+00 -.134E+04   -.264E-01 0.106E-01 -.518E+00   -.273E-01 0.143E+00 0.529E-01
   -.132E+01 -.120E+01 0.134E+04   0.131E+01 0.979E+00 -.134E+04   0.253E-01 0.290E-01 -.515E+00   -.815E-02 0.176E+00 0.595E-01
   -.169E-01 0.171E+00 -.133E+04   0.600E-01 -.614E-01 0.133E+04   0.471E-02 -.103E-02 0.548E+00   -.494E-01 -.106E+00 -.257E-02
   -.686E+00 -.282E+00 0.266E+04   0.750E+00 0.269E+00 -.266E+04   -.159E-01 0.256E-01 -.662E+00   -.490E-01 -.164E-01 0.155E-01
   0.346E+00 0.160E+01 0.134E+04   -.263E+00 -.143E+01 -.134E+04   -.447E-02 -.326E-01 -.512E+00   -.656E-01 -.134E+00 0.115E+00
   0.945E+01 0.586E+01 -.265E+04   -.101E+02 -.626E+01 0.265E+04   0.716E+00 0.392E+00 0.177E+00   -.295E-01 0.283E-01 -.416E-01
   0.106E+00 -.669E-01 -.115E+02   -.111E+00 -.336E-01 0.117E+02   0.128E-02 -.786E-03 -.205E+00   0.201E-02 0.978E-01 -.955E-02
   0.176E+01 0.120E+01 -.264E+04   -.150E+01 -.108E+01 0.264E+04   -.288E+00 -.197E+00 0.739E+00   0.171E-01 0.732E-01 -.648E-01
   -.155E+01 -.803E+00 0.134E+04   0.146E+01 0.790E+00 -.134E+04   0.378E-01 0.134E-01 -.513E+00   0.502E-01 0.103E-01 0.641E-01
   0.143E+00 -.340E+00 0.134E+04   -.100E+00 0.306E+00 -.134E+04   -.964E-03 0.198E-01 -.476E+00   -.442E-01 0.203E-01 0.627E-01
   -.130E+01 0.652E+00 0.550E+01   0.131E+01 -.656E+00 -.551E+01   -.156E-01 0.135E-01 -.111E-02   -.514E-03 -.535E-02 0.146E-01
   0.773E+00 0.374E+00 -.133E+04   -.840E+00 -.492E+00 0.133E+04   0.480E-01 0.102E-01 0.580E+00   0.129E-01 0.108E+00 -.844E-01
   -.245E+01 0.123E+01 -.136E+04   0.254E+01 -.137E+01 0.136E+04   -.781E-01 0.480E-01 0.467E+00   -.214E-01 0.995E-01 -.932E-01
   0.564E-01 0.958E+00 0.266E+04   -.263E-01 -.992E+00 -.266E+04   -.378E-01 -.245E-01 -.737E+00   -.215E-02 0.270E-01 0.804E-01
   0.260E+00 -.151E-01 0.265E+04   -.251E+00 -.257E-01 -.265E+04   -.149E-01 0.270E-01 -.753E+00   0.344E-02 0.193E-01 0.734E-01
   -.397E+00 0.300E+01 0.134E+04   0.408E+00 -.297E+01 -.134E+04   0.202E-01 -.288E-01 -.398E+00   -.122E-01 -.350E-01 0.931E-01
[...]
   -.147E+01 0.249E+01 -.748E+00   0.158E+01 -.246E+01 0.701E+00   -.512E-01 0.973E-02 0.269E-01   -.486E-01 -.351E-01 0.234E-01
   0.478E+00 -.797E-01 0.532E+01   -.522E+00 0.209E+00 -.533E+01   -.245E-02 0.312E-02 -.368E-01   0.487E-01 -.136E+00 0.596E-01
   -.127E+01 0.104E+01 0.134E+04   0.132E+01 -.107E+01 -.134E+04   -.649E-02 -.984E-02 -.520E+00   -.280E-01 0.226E-01 0.106E+00
   -.108E+00 -.111E+01 0.554E+01   0.557E-01 0.126E+01 -.560E+01   0.169E-02 -.200E-01 0.110E-01   0.498E-01 -.132E+00 0.436E-01
   -.281E-01 -.759E+00 -.133E+04   0.269E-01 0.925E+00 0.133E+04   0.852E-02 -.552E-01 0.579E+00   -.101E-01 -.107E+00 -.184E-01
   0.895E+00 0.462E+00 -.133E+04   -.964E+00 -.445E+00 0.133E+04   0.372E-01 0.268E-01 0.575E+00   0.272E-01 -.449E-01 -.389E-01
   -.344E+00 -.606E+00 0.266E+04   0.372E+00 0.599E+00 -.266E+04   0.162E-02 0.389E-01 -.729E+00   -.976E-02 -.187E-01 0.387E-01
   0.143E+01 0.635E+00 0.266E+04   -.143E+01 -.495E+00 -.266E+04   -.620E-01 -.370E-01 -.741E+00   0.332E-01 -.117E+00 0.552E-01
   -.291E+01 -.912E-01 -.767E+00   0.294E+01 -.122E+00 0.755E+00   -.349E-01 0.489E-01 0.174E-01   0.501E-02 0.164E+00 -.224E-02
   0.167E+01 -.110E+01 0.533E+01   -.164E+01 0.107E+01 -.536E+01   0.200E-01 0.436E-03 0.307E-01   -.548E-01 0.367E-01 0.138E-01
   -.104E+01 0.148E+00 0.135E+04   0.106E+01 -.244E-01 -.135E+04   0.223E-01 -.562E-02 -.542E+00   -.105E-01 -.123E+00 0.119E+00
   0.152E+01 -.260E+01 0.129E+01   -.149E+01 0.264E+01 -.134E+01   -.241E-01 -.500E-01 0.358E-01   -.877E-02 0.163E-01 0.143E-01
   -.146E+01 -.273E+01 -.422E-01   0.138E+01 0.275E+01 -.914E-02   0.248E-01 -.537E-01 0.277E-01   0.589E-01 0.419E-01 0.280E-01
   -.102E-01 0.125E-01 -.314E+03   0.214E-02 -.195E-01 0.316E+03   0.687E-02 -.833E-03 -.152E+01   -.211E-02 0.532E-02 0.217E-02
   0.501E-01 -.736E-01 0.302E+01   0.428E-12 0.847E-12 0.307E-11   -.205E-01 0.287E-01 -.379E+01   -.297E-01 0.415E-01 0.875E+00

 POSITION                                       TOTAL-FORCE (eV/Angst)
     13.23972      8.18477      7.31559        -0.001340     -0.001797      0.007439
      5.09544      8.18471      7.30834         0.005274     -0.005784      0.005875
      3.73680      5.83220      7.30891         0.006758     -0.002684      0.009906
     13.26096      8.15881      0.33508        -0.002125      0.009475     -0.025103
      5.11298      8.16499      0.33776         0.030690     -0.024825     -0.040882
      3.75994      5.80893      0.34099         0.005759     -0.015675     -0.043579
      7.82212      1.89698      2.68782        -0.003504      0.037882      0.021341
      9.17946      8.95119      2.68863        -0.006225     -0.006051      0.019594
      2.37974      3.48013      7.30382        -0.000387     -0.001466      0.006261
      2.39734      3.45595      0.34227         0.017432      0.018520     -0.055529
     10.53697      1.89804      2.68601         0.023178      0.009400      0.017536
     13.24522      5.04190      5.00085         0.001006      0.002666      0.009950
      3.73650      1.13030      7.30407        -0.001899      0.004530      0.007905
      9.16191      5.82933      7.35022        -0.009011      0.000166     -0.001874
      5.10276      3.48619      7.32982         0.008825      0.008159      0.011702
      3.75911      1.10540      0.34120        -0.003205      0.000595     -0.064125
      9.18634      5.80965      0.34007         0.010598     -0.004500     -0.023334
      5.11389      3.46032      0.34242        -0.008312     -0.022366     -0.021498
     11.89500      8.95112      2.68655        -0.022154      0.013370      0.015464
     11.88793      7.39160      4.99747        -0.003690      0.003345      0.003071
     13.25268      6.60069      2.68826         0.016754     -0.027241      0.016062
      9.18124      4.24885      2.68838        -0.036344      0.018482      0.112894
      7.80941      8.17413      7.32806        -0.003314     -0.009346      0.009411
      7.82892      8.15831      0.34077         0.006465      0.028090     -0.018677
     10.53847      6.60054      2.68678        -0.044602     -0.010043      0.030260
      2.38556      0.33515      4.99639        -0.001217     -0.007392      0.007308
     14.59210      8.97523      9.67841         0.004420      0.003753     -0.008145
      3.72489      4.27501      9.66667         0.001637     -0.001303     -0.007726
      6.44245      8.98002      9.66588        -0.000894      0.000372     -0.010154
     11.88464      4.27524      9.66534        -0.004686     -0.002793     -0.008185
      9.16698      8.97989      9.66641        -0.001351     -0.001094     -0.010442
     10.52256      1.91374      9.66731        -0.005886      0.005208     -0.012140
      2.37486      1.92198      9.65511        -0.000981     -0.003610     -0.007526
     11.87803      8.97511      9.67820        -0.005507      0.001355     -0.006819
     13.23519      6.62429      9.68009        -0.002890      0.000833     -0.009302
      5.08755      1.91383      9.66837         0.000681      0.004180     -0.009907
      7.80428      6.66418      9.74308        -0.002108      0.004211     -0.000401
      9.19979      4.25095      9.74000        -0.016307      0.007784     -0.000043
      5.06558      6.63829      9.65892        -0.001404      0.002211     -0.005940
      7.80456      1.89362      9.65763        -0.001312     -0.002234     -0.003629
      7.80953      3.48797      7.35102        -0.001615      0.008180     -0.006058
      7.83361      3.45501      0.33888        -0.011864      0.016322     -0.022302
      6.45149      1.13109      7.30811        -0.001407      0.007557      0.009556
      6.47133      1.10903      0.33724         0.000826      0.007068     -0.041652
     11.89516      4.24994      2.69001        -0.001189     -0.030150      0.010473
      3.75030      4.24868      2.69210         0.001907     -0.013376      0.012427
      1.02369      1.13055      7.30309        -0.001363      0.003210      0.009323
      1.04212      1.10534      0.33711        -0.001820     -0.003151     -0.055459
      6.46463      8.95151      2.68979         0.012354      0.007766      0.011253
      6.40980      4.25115      9.74479         0.012465      0.009448     -0.000862
      7.81582      5.04081      5.03246        -0.001013     -0.003473     -0.009785
     10.54378      6.63859      9.65779        -0.000849      0.000645     -0.006269
      5.10673      1.89832      2.69082        -0.001777      0.011596      0.015798
      2.39206      1.89658      2.69003        -0.003018      0.006444     -0.059865
     14.60308      7.39177      4.99785        -0.001144      0.002805      0.003575
     11.88195      5.83180      7.30781        -0.008267     -0.001535      0.009308
      6.45727      5.82930      7.35312         0.003983      0.001617     -0.001731
     11.90328      5.81190      0.33786        -0.009791     -0.030537     -0.044070
      6.47361      5.80809      0.34072        -0.002949      0.005585     -0.028659
      7.82158      6.60008      2.69018         0.018503     -0.038931      0.121531
[...]
     10.52588      5.04119      5.00446        -0.001107     -0.002079     -0.000144
      6.45962      7.38749      5.00703         0.002857      0.004133     -0.001550
      5.10158      0.33727      5.00024         0.000633     -0.002752      0.012738
      5.10888      6.60100      2.68955         0.013944     -0.014396      0.027857
      7.81465      0.33881      4.99714        -0.000164     -0.003433      0.004449
      9.16861      1.13135      7.30718        -0.003133      0.006888      0.008245
     10.52383      8.18436      7.30802        -0.006622     -0.003859      0.005741
      9.18563      1.10733      0.33405         0.019533      0.013166     -0.040746
     10.54699      8.16248      0.33544        -0.027010     -0.013210     -0.042612
      5.10536      5.04134      5.00767         0.000772     -0.001803     -0.001423
     11.88514      2.68985      4.99604        -0.005738      0.007827      0.002761
     14.60792      8.95243      2.68762         0.033069     -0.003892      0.008600
      9.17014      2.69299      5.00322        -0.000039      0.005111     -0.000293
      6.46063      2.69333      5.00588        -0.000129      0.005188     -0.000225
      7.81005      5.05314     10.67155        -0.003307     -0.002434      0.030612
    total drift:                               -0.000058     -0.003435      0.105807

  FREE ENERGIE OF THE ION-ELECTRON SYSTEM (eV)
  free  energy   TOTEN  =      -519.47620545 eV

  energy  without entropy=     -519.38928296  energy(sigma->0) =     -519.44723129

 d Force = 0.7076722E-03[ 0.409E-03, 0.101E-02]  d Energy = 0.7501116E-03-0.424E-04
 d Force = 0.4531649E+02[ 0.453E+02, 0.453E+02]  d Ewald  = 0.4531649E+02-0.583E-05

 Conjugate gradient step on ions:
 trial-energy change:   -0.000750  1 .order   -0.000708   -0.001006   -0.000409
  (g-gl).g = 0.688E-03      g.g   = 0.739E-03  gl.gl    = 0.121E-02
 g(Force)  = 0.739E-03   g(Stress)= 0.000E+00 ortho     = 0.259E-04
 gamma     =   0.56848
 trial     =   1.33604
 opt step  =   1.90486  (harmonic =   2.25051) maximal distance =0.01227973
 next E    =  -519.476296   (d E  =  -0.00084)

 reached required accuracy - stopping structural energy minimisation