 vasp.5.4.4.18Apr17-6-g9f103f2a35 (build Nov 30 2020 22:55:02) complex

 executed on             LinuxIFC date 2023.09.07  17:00:48

 INCAR:
 POTCAR:    PAW_PBE Co 02Aug2007
 POTCAR:    PAW_PBE Pt 04Feb2005
 POTCAR:    PAW_PBE Co 02Aug2007
   VRHFIN =Co: d8 s1

   TITEL  = PAW_PBE Co 02Aug2007
   POMASS =   58.933; ZVAL   =    9.000    mass and valenz
   ENMAX  =  267.968; ENMIN  =  200.976 eV

 POTCAR:    PAW_PBE Pt 04Feb2005
   VRHFIN =Pt: s1d9

   TITEL  = PAW_PBE Pt 04Feb2005
   POMASS =  195.080; ZVAL   =   10.000    mass and valenz
   ENMAX  =  230.283; ENMIN  =  172.712 eV

 Optimization of the real space projectors (new method)

 maximal supplied QI-value         = 16.25
 optimisation between [QCUT,QGAM] = [ 11.86, 23.89] = [ 39.41,159.82] Ry
 Optimized for a Real-space Cutoff    1.33 Angstroem

   l    n(q)    QCUT    max X(q) W(low)/X(q) W(high)/X(q)  e(spline)
   2      9    11.864    65.824    0.22E-03    0.53E-03    0.26E-06
   2      9    11.864    61.429    0.22E-03    0.53E-03    0.26E-06
   0      9    11.864    56.174    0.21E-03    0.32E-04    0.15E-06
   0      9    11.864    31.263    0.19E-03    0.30E-04    0.14E-06
   1      9    11.864    19.828    0.63E-04    0.30E-03    0.16E-06
   1      9    11.864    15.139    0.49E-04    0.25E-03    0.13E-06
 Optimization of the real space projectors (new method)

 maximal supplied QI-value         = 14.36
 optimisation between [QCUT,QGAM] = [ 11.92, 23.98] = [ 39.79,161.09] Ry
 Optimized for a Real-space Cutoff    1.49 Angstroem

   l    n(q)    QCUT    max X(q) W(low)/X(q) W(high)/X(q)  e(spline)
   2     10    11.920    66.195    0.79E-04    0.18E-03    0.24E-06
   2     10    11.920    64.643    0.81E-04    0.19E-03    0.24E-06
   0     11    11.920    95.520    0.28E-04    0.54E-04    0.18E-06
   0     11    11.920    63.403    0.27E-04    0.52E-04    0.17E-06
   1     10    11.920    19.961    0.18E-04    0.11E-03    0.23E-06
   1     10    11.920    13.289    0.25E-04    0.87E-04    0.19E-06
  PAW_PBE Co 02Aug2007                  :
  PAW_PBE Pt 04Feb2005                  :

 POSCAR: PtM\(2)
  positions in direct lattice
 exchange correlation table for  LEXCH =        8
   RHO(1)=    0.500       N(1)  =     2000
   RHO(2)=  100.500       N(2)  =     4000

 ion  position               nearest neighbor table
   1  0.783  0.870  0.326-  29 2.63  40 2.64  57 2.64   3 2.64  56 2.64   2 2.65  20 2.67  39 2.68
                            55 2.68  65 2.72  73 2.73  72 2.74
   2  0.033  0.871  0.327-  56 2.62   3 2.64  33 2.64  23 2.64   1 2.65  41 2.65  49 2.67  39 2.68
                            52 2.68  65 2.73  77 2.73  67 2.73
   3  0.034  0.620  0.327-   9 2.64  41 2.64   2 2.64   1 2.64  40 2.65  15 2.65  60 2.67  12 2.68
                            39 2.68  73 2.72  66 2.72  77 2.73
   4  0.788  0.867  0.024-  30 2.63   6 2.64  58 2.64  59 2.64  42 2.65   5 2.65  62 2.72  21 2.72
                            19 2.73
   5  0.039  0.866  0.024-  43 2.62  24 2.64   6 2.64  58 2.65   4 2.65  34 2.66  54 2.72  35 2.73
                            62 2.73
   6  0.037  0.617  0.024-  10 2.63   4 2.64   5 2.64  43 2.64  42 2.64  18 2.65  54 2.72  32 2.73
                            21 2.73
   7  0.620  0.202  0.126-  22 2.63  37 2.64  11 2.64  62 2.64  45 2.65  19 2.65  55 2.67  63 2.67
                            64 2.69  28 2.72  30 2.73  58 2.73
   8  0.370  0.952  0.126-  25 2.63  35 2.64  19 2.64  38 2.64  37 2.64  44 2.64  53 2.67  50 2.68
                            26 2.69  16 2.72  24 2.73  59 2.74
   9  0.035  0.370  0.327-   3 2.64  33 2.64  47 2.64  13 2.64  15 2.64  40 2.65  12 2.67  61 2.68
                            46 2.68  66 2.72  71 2.72  68 2.73
  10  0.038  0.368  0.024-   6 2.63  18 2.64  42 2.64  34 2.64  16 2.64  48 2.66  38 2.72  32 2.72
                            31 2.73
  11  0.870  0.202  0.127-  31 2.63  35 2.64   7 2.64  38 2.65  62 2.65  22 2.65  49 2.66  61 2.68
                            63 2.68  48 2.72  58 2.72  34 2.73
  12  0.951  0.536  0.227-  61 2.63  39 2.64  20 2.64  51 2.64  60 2.65  46 2.65   9 2.67  21 2.68
                             3 2.68  40 2.68  31 2.68  32 2.68
  13  0.285  0.119  0.327-  57 2.63  29 2.63  33 2.64   9 2.64  23 2.64  15 2.65  46 2.67  26 2.68
                            53 2.69  74 2.72  71 2.73  69 2.73
  14  0.534  0.619  0.327-  27 2.63  41 2.63  57 2.63  40 2.64  23 2.64  47 2.65  36 2.67  50 2.68
                            51 2.69  76 2.72  80 2.73  75 2.74
  15  0.285  0.370  0.327-  41 2.63  27 2.64  29 2.64   9 2.64  13 2.65   3 2.65  60 2.67  46 2.67
                            64 2.68  74 2.72  79 2.72  66 2.72
  16  0.288  0.118  0.024-  18 2.63  34 2.63  10 2.64  24 2.64  30 2.64  59 2.65   8 2.72  37 2.73
                            38 2.74
  17  0.537  0.617  0.023-  28 2.64  42 2.64  59 2.64  48 2.64  43 2.64  24 2.64  25 2.73  22 2.73
                            44 2.74
  18  0.288  0.367  0.024-  28 2.63  16 2.63  10 2.64  43 2.64  30 2.64   6 2.65  37 2.72  45 2.72
                            32 2.74
  19  0.620  0.951  0.126-  21 2.63  37 2.63   8 2.64  25 2.64  62 2.65   7 2.65  55 2.67  20 2.67
                            53 2.69  30 2.72   4 2.73  59 2.73
  20  0.700  0.786  0.226-  53 2.63  51 2.63  50 2.64  12 2.64  39 2.64  55 2.65   1 2.67  19 2.67
                            25 2.68  40 2.68  57 2.68  21 2.68
  21  0.869  0.701  0.127-  19 2.63  31 2.63  32 2.64  25 2.64  54 2.64  62 2.65  39 2.68  12 2.68
                            20 2.68   4 2.72   6 2.73  42 2.73
  22  0.619  0.452  0.126-   7 2.63  25 2.63  45 2.64  44 2.64  31 2.64  11 2.65  63 2.67  51 2.67
                            36 2.69  28 2.72  17 2.73  48 2.73
  23  0.283  0.870  0.327-  33 2.63  41 2.63  57 2.64   2 2.64  14 2.64  13 2.64  26 2.67  52 2.68
                            50 2.69  67 2.72  69 2.73  75 2.73
  24  0.288  0.868  0.023-  59 2.63   5 2.64  34 2.64  16 2.64  17 2.64  43 2.65   8 2.73  44 2.73
                            35 2.74
  25  0.618  0.702  0.126-   8 2.63  44 2.63  22 2.63  31 2.64  21 2.64  19 2.64  51 2.67  20 2.68
                            50 2.69  59 2.72  17 2.73  42 2.73
  26  0.202  0.036  0.227-  50 2.63  53 2.64  49 2.64  52 2.64  61 2.64  46 2.65  38 2.67  23 2.67
                            33 2.68  35 2.68  13 2.68   8 2.69
  27  0.535  0.369  0.327-  14 2.63  56 2.63  47 2.63  15 2.64  29 2.65  41 2.65  64 2.67  36 2.68
                            63 2.68  78 2.72  76 2.73  79 2.73
  28  0.536  0.368  0.024-  18 2.63  43 2.63  17 2.64  30 2.64  48 2.64  58 2.66   7 2.72  22 2.72
                            45 2.74
  29  0.535  0.119  0.327-   1 2.63  13 2.63  56 2.64  15 2.64  57 2.65  27 2.65  64 2.67  53 2.67
                            55 2.69  78 2.72  72 2.73  74 2.73
  30  0.539  0.117  0.024-   4 2.63  28 2.64  58 2.64  16 2.64  18 2.64  59 2.65  19 2.72   7 2.73
                            37 2.74
  31  0.869  0.452  0.127-  11 2.63  21 2.63  25 2.64  22 2.64  38 2.65  32 2.65  61 2.67  12 2.68
                            51 2.68  42 2.72  48 2.73  10 2.73
  32  0.120  0.452  0.127-  38 2.63  54 2.63  45 2.63  21 2.64  31 2.65  37 2.65  46 2.67  60 2.67
                            12 2.68  10 2.72   6 2.73  18 2.74
  33  0.035  0.120  0.326-  23 2.63  47 2.64   2 2.64   9 2.64  13 2.64  56 2.65  61 2.67  26 2.68
                            49 2.68  70 2.72  71 2.73  67 2.73
  34  0.038  0.118  0.024-  16 2.63  10 2.64  24 2.64  48 2.64  58 2.64   5 2.66  35 2.72  11 2.73
                            38 2.73
  35  0.120  0.952  0.127-  44 2.63   8 2.64  11 2.64  62 2.64  38 2.65  54 2.65  52 2.68  26 2.68
                            49 2.68  34 2.72   5 2.73  24 2.74
  36  0.451  0.536  0.227-  50 2.63  60 2.64  51 2.64  64 2.64  52 2.64  63 2.65  45 2.67  14 2.67
                            27 2.68  44 2.68  41 2.68  22 2.69
  37  0.371  0.201  0.127-  19 2.63   7 2.64  45 2.64  38 2.64   8 2.64  32 2.65  53 2.67  64 2.67
                            46 2.69  18 2.72  16 2.73  30 2.74
  38  0.121  0.202  0.127-  32 2.63  37 2.64   8 2.64  11 2.65  31 2.65  35 2.65  26 2.67  46 2.67
                            61 2.68  10 2.72  34 2.73  16 2.74
  39  0.950  0.786  0.227-  55 2.63  12 2.64  20 2.64  60 2.64  52 2.64  49 2.65  62 2.67  21 2.68
                             1 2.68   2 2.68  54 2.68   3 2.68
  40  0.784  0.620  0.327-  47 2.63   1 2.64  57 2.64  14 2.64   9 2.65   3 2.65  12 2.68  20 2.68
                            51 2.68  68 2.72  73 2.73  80 2.73
  41  0.284  0.620  0.327-  23 2.63  14 2.63  15 2.63   3 2.64   2 2.65  27 2.65  60 2.67  52 2.68
                            36 2.68  75 2.72  79 2.72  77 2.73
  42  0.787  0.616  0.024-  10 2.64  17 2.64  48 2.64  59 2.64   6 2.64   4 2.65  31 2.72  21 2.73
                            25 2.73
  43  0.287  0.618  0.024-   5 2.62  28 2.63   6 2.64  17 2.64  18 2.64  24 2.65  44 2.72  45 2.73
                            54 2.74
  44  0.369  0.702  0.126-  35 2.63  25 2.63  22 2.64  45 2.64  54 2.64   8 2.64  50 2.67  36 2.68
                            52 2.69  43 2.72  24 2.73  17 2.74
  45  0.369  0.452  0.127-  32 2.63  22 2.64  37 2.64  54 2.64  44 2.64   7 2.65  64 2.67  36 2.67
                            60 2.69  18 2.72  43 2.73  28 2.74
  46  0.203  0.286  0.227-  64 2.63  60 2.64  53 2.64  26 2.65  61 2.65  12 2.65  15 2.67  13 2.67
                            32 2.67  38 2.67   9 2.68  37 2.69
  47  0.785  0.370  0.326-  40 2.63  27 2.63  33 2.64   9 2.64  14 2.65  56 2.65  63 2.67  51 2.68
                            61 2.68  70 2.72  68 2.73  76 2.73
  48  0.787  0.367  0.024-  58 2.63  42 2.64  17 2.64  34 2.64  28 2.64  10 2.66  11 2.72  31 2.73
                            22 2.73
  49  0.952  0.036  0.226-  52 2.64  63 2.64  55 2.64  26 2.64  61 2.64  39 2.65  11 2.66   2 2.67
                            62 2.68  33 2.68  56 2.68  35 2.68
  50  0.451  0.785  0.227-  36 2.63  26 2.63  52 2.63  51 2.64  20 2.64  53 2.65  44 2.67  57 2.67
                             8 2.68  14 2.68  23 2.69  25 2.69
  51  0.701  0.536  0.226-  63 2.63  20 2.63  50 2.64  36 2.64  12 2.64  61 2.65  25 2.67  22 2.67
                            47 2.68  40 2.68  31 2.68  14 2.69
  52  0.201  0.786  0.227-  50 2.63  49 2.64  60 2.64  36 2.64  26 2.64  39 2.64  54 2.67  35 2.68
                            23 2.68  41 2.68   2 2.68  44 2.69
  53  0.452  0.035  0.227-  20 2.63  26 2.64  55 2.64  46 2.64  64 2.65  50 2.65  37 2.67  29 2.67
                             8 2.67  57 2.68  19 2.69  13 2.69
  54  0.119  0.702  0.127-  62 2.63  32 2.63  45 2.64  44 2.64  21 2.64  35 2.65  52 2.67  60 2.67
                            39 2.68   5 2.72   6 2.72  43 2.74
  55  0.702  0.036  0.226-  39 2.63  64 2.63  53 2.64  49 2.64  63 2.65  20 2.65   7 2.67  19 2.67
                            56 2.67   1 2.68  62 2.68  29 2.69
  56  0.784  0.119  0.326-   2 2.62  27 2.63  29 2.64   1 2.64  33 2.65  47 2.65  63 2.67  55 2.67
                            49 2.68  70 2.72  65 2.73  78 2.73
  57  0.533  0.869  0.327-  13 2.63  14 2.63  23 2.64   1 2.64  40 2.64  29 2.65  50 2.67  53 2.68
                            20 2.68  72 2.72  69 2.73  80 2.73
[...]
   0.805E-01 0.144E+00 -.128E+04   -.737E-01 -.151E+00 0.128E+04   -.656E-02 0.696E-02 0.164E+01   0.128E-02 -.888E-03 -.354E-02
   0.158E+00 -.169E+00 0.275E+04   -.163E+00 0.173E+00 -.274E+04   -.121E-03 -.434E-03 -.226E+01   -.411E-03 0.947E-04 0.954E-03
   -.149E+00 0.103E+00 0.275E+04   0.142E+00 -.973E-01 -.274E+04   0.482E-02 -.701E-02 -.226E+01   -.492E-03 -.478E-03 0.662E-03
   -.905E-01 0.805E-02 0.275E+04   0.856E-01 -.340E-02 -.274E+04   0.274E-02 -.366E-02 -.225E+01   0.124E-03 -.505E-03 0.795E-03
   0.109E+00 -.319E+00 0.139E+04   -.114E+00 0.320E+00 -.139E+04   -.403E-03 0.377E-02 -.160E+00   -.814E-03 0.635E-03 -.787E-03
   0.247E+00 0.150E-01 0.139E+04   -.254E+00 -.143E-01 -.139E+04   -.678E-03 0.292E-02 -.161E+00   0.752E-03 0.455E-03 -.543E-03
   0.176E-01 -.418E-01 -.128E+04   -.896E-02 0.376E-01 0.128E+04   -.513E-02 0.607E-02 0.163E+01   0.136E-02 -.314E-03 -.329E-02
   -.867E-01 0.616E-01 0.275E+04   0.799E-01 -.565E-01 -.274E+04   0.450E-02 -.719E-02 -.225E+01   0.603E-03 0.384E-03 0.630E-03
   0.233E-01 -.152E+00 0.139E+04   -.286E-01 0.154E+00 -.139E+04   0.204E-02 0.142E-02 -.163E+00   -.719E-03 0.192E-03 -.153E-03
   -.662E-01 0.116E+00 0.724E+02   0.649E-01 -.117E+00 -.722E+02   0.651E-03 0.210E-03 -.299E+00   0.124E-02 -.167E-03 -.204E-02
   0.132E+00 -.134E+00 -.128E+04   -.126E+00 0.128E+00 0.128E+04   -.405E-02 0.635E-02 0.163E+01   0.227E-03 0.642E-03 -.344E-02
   -.126E+00 0.230E+00 -.128E+04   0.133E+00 -.235E+00 0.128E+04   -.393E-02 0.132E-02 0.163E+01   -.677E-03 0.116E-03 -.272E-02
   0.676E-01 -.216E-01 -.129E+04   -.602E-01 0.175E-01 0.128E+04   -.334E-02 0.491E-02 0.164E+01   -.750E-05 0.552E-03 -.422E-02
   0.251E+00 -.424E-01 0.275E+04   -.259E+00 0.489E-01 -.274E+04   0.195E-03 -.641E-02 -.226E+01   0.118E-02 0.495E-03 0.824E-03
   -.528E-01 -.194E-01 0.275E+04   0.462E-01 0.254E-01 -.275E+04   0.647E-02 -.429E-02 -.227E+01   -.223E-03 -.486E-03 0.614E-03
   -.139E+00 -.667E-01 0.275E+04   0.132E+00 0.735E-01 -.274E+04   0.628E-02 -.781E-02 -.225E+01   0.746E-03 -.190E-03 0.118E-02
   0.236E+00 0.233E-01 0.139E+04   -.240E+00 -.222E-01 -.139E+04   -.203E-02 0.372E-02 -.161E+00   -.762E-04 0.671E-03 -.951E-03
   -.314E+00 -.149E+00 0.730E+02   0.316E+00 0.148E+00 -.728E+02   -.493E-03 0.832E-03 -.298E+00   0.313E-04 0.152E-03 -.243E-02
   0.402E-01 -.189E-01 0.139E+04   -.473E-01 0.213E-01 -.139E+04   0.281E-02 0.615E-03 -.163E+00   0.128E-03 0.472E-04 -.752E-03
   0.199E+00 -.352E-01 0.139E+04   -.204E+00 0.398E-01 -.139E+04   -.793E-03 0.921E-03 -.162E+00   -.896E-03 -.402E-03 -.901E-03
   0.468E+00 -.143E+00 -.128E+04   -.461E+00 0.136E+00 0.128E+04   -.895E-02 0.689E-02 0.163E+01   0.101E-03 -.281E-04 -.268E-02
   -.192E+00 -.147E-01 0.275E+04   0.183E+00 0.214E-01 -.274E+04   0.861E-02 -.561E-02 -.226E+01   0.513E-03 -.447E-03 0.520E-03
   0.215E+00 -.712E-01 0.140E+04   -.221E+00 0.718E-01 -.140E+04   0.347E-02 0.397E-02 -.160E+00   0.993E-04 0.167E-03 -.904E-03
   0.204E+00 0.619E-01 0.724E+02   -.202E+00 -.661E-01 -.722E+02   -.308E-02 0.211E-02 -.300E+00   0.390E-03 0.565E-03 -.132E-02
   -.136E+00 0.136E+00 -.128E+04   0.146E+00 -.141E+00 0.128E+04   -.485E-02 0.278E-02 0.163E+01   -.114E-02 0.687E-03 -.363E-02
   0.134E+00 -.290E+00 0.275E+04   -.139E+00 0.296E+00 -.274E+04   0.240E-02 -.282E-02 -.226E+01   -.876E-03 -.348E-05 0.102E-02
   -.190E+00 0.229E+00 -.128E+04   0.197E+00 -.236E+00 0.128E+04   -.405E-02 0.206E-02 0.163E+01   -.108E-02 0.980E-03 -.351E-02
   0.952E-01 -.173E+00 0.275E+04   -.103E+00 0.179E+00 -.274E+04   0.443E-02 -.642E-02 -.226E+01   -.291E-03 0.726E-03 0.102E-02
   -.192E-01 0.201E+00 0.139E+04   0.114E-01 -.197E+00 -.139E+04   0.510E-02 -.313E-02 -.162E+00   0.686E-04 0.145E-03 -.851E-03
   0.215E+00 -.615E-01 0.139E+04   -.224E+00 0.643E-01 -.139E+04   0.294E-02 0.169E-02 -.160E+00   0.101E-02 -.195E-03 -.359E-03
   0.485E-02 0.426E-01 -.128E+04   0.304E-02 -.482E-01 0.128E+04   -.548E-02 0.445E-02 0.163E+01   0.357E-03 -.158E-03 -.337E-02
   0.680E-02 -.485E-01 0.275E+04   -.132E-01 0.544E-01 -.274E+04   0.181E-02 -.580E-02 -.226E+01   -.944E-04 0.465E-03 0.662E-03
   0.134E+00 0.384E-02 0.139E+04   -.138E+00 -.258E-02 -.139E+04   0.197E-02 -.142E-02 -.161E+00   -.366E-03 0.222E-03 -.121E-03
   -.246E+00 0.184E+00 0.726E+02   0.251E+00 -.186E+00 -.724E+02   -.359E-02 0.163E-03 -.299E+00   -.117E-02 -.659E-03 -.192E-02
   0.191E+00 -.167E+00 0.139E+04   -.197E+00 0.168E+00 -.139E+04   -.270E-03 0.170E-02 -.161E+00   0.604E-03 0.783E-03 -.588E-03
   0.198E+00 -.259E+00 0.139E+04   -.204E+00 0.260E+00 -.139E+04   0.993E-03 0.389E-02 -.160E+00   0.736E-03 0.492E-03 -.259E-03
   0.319E-01 -.223E+00 0.727E+02   -.306E-01 0.224E+00 -.725E+02   -.352E-02 0.187E-02 -.299E+00   0.322E-03 -.555E-03 -.202E-02
   -.597E-01 0.368E+00 -.128E+04   0.676E-01 -.375E+00 0.128E+04   -.737E-02 0.223E-02 0.163E+01   0.182E-03 0.431E-04 -.279E-02
   0.456E-01 -.185E+00 -.129E+04   -.360E-01 0.180E+00 0.128E+04   -.490E-02 0.733E-02 0.163E+01   -.719E-03 -.939E-03 -.333E-02
   0.225E+00 -.256E-01 0.275E+04   -.228E+00 0.298E-01 -.274E+04   -.740E-03 -.244E-02 -.226E+01   0.127E-03 0.837E-04 0.709E-03
   -.484E-01 0.288E-01 0.275E+04   0.427E-01 -.220E-01 -.274E+04   0.379E-02 -.506E-02 -.226E+01   0.503E-05 -.129E-02 0.819E-03
   0.633E-01 -.744E-01 0.139E+04   -.675E-01 0.769E-01 -.139E+04   0.174E-02 0.549E-04 -.163E+00   -.129E-03 -.943E-03 -.738E-03
   0.684E-01 -.502E-01 0.139E+04   -.734E-01 0.533E-01 -.139E+04   -.847E-04 0.131E-02 -.160E+00   -.449E-03 -.722E-03 -.547E-03
   0.180E+00 0.519E-02 0.722E+02   -.179E+00 -.958E-02 -.720E+02   -.260E-02 0.295E-02 -.299E+00   0.139E-02 0.384E-03 -.143E-02
   -.327E+00 0.257E-01 -.128E+04   0.335E+00 -.302E-01 0.128E+04   -.418E-02 0.421E-02 0.163E+01   -.102E-03 -.220E-03 -.306E-02
   0.280E+00 -.157E+00 0.275E+04   -.283E+00 0.161E+00 -.274E+04   -.178E-02 -.205E-02 -.226E+01   -.521E-03 0.261E-03 0.792E-03
   -.961E-02 -.724E-02 0.728E+02   0.123E-01 0.505E-02 -.726E+02   -.231E-02 0.574E-03 -.298E+00   -.150E-03 0.248E-03 -.198E-02
   -.149E+00 -.927E-01 0.730E+02   0.154E+00 0.896E-01 -.728E+02   -.537E-02 0.188E-02 -.296E+00   0.633E-04 0.710E-04 -.182E-02
   -.208E+00 0.303E+00 0.725E+02   0.210E+00 -.304E+00 -.723E+02   -.119E-02 -.192E-02 -.298E+00   -.329E-03 -.115E-03 -.221E-02
   0.646E-01 -.298E+00 0.724E+02   -.617E-01 0.298E+00 -.721E+02   -.376E-02 0.159E-02 -.299E+00   -.428E-03 -.800E-03 -.135E-02
   -.260E+00 0.311E+00 0.726E+02   0.265E+00 -.318E+00 -.724E+02   -.190E-02 0.175E-02 -.297E+00   -.266E-03 0.948E-03 -.215E-02
   0.150E+00 -.130E+00 0.139E+04   -.155E+00 0.134E+00 -.139E+04   0.538E-03 0.357E-03 -.161E+00   -.314E-03 -.106E-02 -.399E-03
   -.215E+00 0.195E+00 0.726E+02   0.219E+00 -.199E+00 -.724E+02   -.235E-02 0.149E-02 -.298E+00   0.565E-04 0.505E-03 -.288E-02
   -.708E-01 0.195E+00 -.128E+04   0.759E-01 -.200E+00 0.128E+04   -.470E-02 0.193E-02 0.163E+01   0.563E-03 0.133E-03 -.359E-02
   -.125E+00 -.131E+00 -.128E+04   0.130E+00 0.126E+00 0.128E+04   -.575E-02 0.587E-02 0.163E+01   -.642E-03 0.189E-03 -.296E-02
   0.382E-01 -.180E+00 0.275E+04   -.450E-01 0.185E+00 -.274E+04   0.326E-02 -.441E-02 -.226E+01   -.879E-03 0.487E-03 0.107E-02
   0.298E+00 0.535E-01 0.275E+04   -.304E+00 -.468E-01 -.274E+04   0.689E-03 -.618E-02 -.227E+01   0.352E-03 0.323E-03 0.713E-03
   0.100E+00 0.166E-01 0.724E+02   -.987E-01 -.178E-01 -.722E+02   -.429E-02 0.866E-03 -.298E+00   0.254E-03 -.114E-02 -.120E-02
[...]
   -.496E+00 0.170E+00 -.293E+04   0.493E+00 -.174E+00 0.293E+04   0.286E-01 -.668E-02 0.214E+01   0.379E-03 -.434E-03 -.229E-02
   -.659E+00 -.764E-01 -.293E+04   0.663E+00 0.757E-01 0.293E+04   0.154E-01 0.696E-02 0.214E+01   0.163E-03 0.173E-03 -.174E-02
   0.350E+00 -.309E+00 -.293E+04   -.355E+00 0.313E+00 0.293E+04   -.119E-02 -.612E-03 0.214E+01   -.117E-03 -.305E-03 -.221E-02
   -.198E+00 0.133E+00 -.293E+04   0.198E+00 -.131E+00 0.293E+04   0.352E-02 -.884E-02 0.214E+01   0.204E-03 0.309E-03 -.206E-02
   -.277E+00 -.256E+00 -.293E+04   0.279E+00 0.257E+00 0.293E+04   0.114E-01 0.231E-02 0.214E+01   0.308E-03 0.594E-04 -.243E-02
   -.230E+00 -.391E+00 -.293E+04   0.232E+00 0.393E+00 0.293E+04   0.225E-02 0.100E-01 0.214E+01   -.370E-03 -.316E-04 -.176E-02
   -.419E+00 0.882E+00 -.293E+04   0.412E+00 -.885E+00 0.293E+04   0.202E-01 -.274E-01 0.214E+01   -.122E-03 -.413E-03 -.188E-02
   0.258E+00 -.299E+00 -.293E+04   -.261E+00 0.295E+00 0.293E+04   -.461E-02 0.996E-02 0.214E+01   -.148E-03 0.168E-03 -.257E-02
   0.780E+00 0.135E+00 -.293E+04   -.775E+00 -.133E+00 0.293E+04   -.271E-01 -.109E-01 0.214E+01   0.194E-03 -.913E-04 -.221E-02
   -.650E-01 -.104E+00 -.293E+04   0.615E-01 0.104E+00 0.293E+04   0.359E-02 0.696E-02 0.214E+01   -.311E-03 0.539E-03 -.189E-02
   -.380E+00 0.427E+00 -.293E+04   0.383E+00 -.431E+00 0.293E+04   0.134E-01 -.140E-01 0.214E+01   0.411E-03 -.442E-03 -.264E-02
   -.379E-01 0.218E+00 -.293E+04   0.352E-01 -.217E+00 0.293E+04   0.164E-02 -.813E-02 0.214E+01   -.427E-03 0.426E-03 -.192E-02
   0.200E+00 -.313E+00 -.293E+04   -.202E+00 0.316E+00 0.293E+04   -.183E-02 0.364E-02 0.214E+01   -.110E-03 0.283E-03 -.278E-02
   -.200E+00 0.516E+00 -.293E+04   0.200E+00 -.518E+00 0.293E+04   0.589E-02 -.136E-01 0.214E+01   -.492E-03 0.326E-04 -.176E-02
   -.366E-01 -.577E-02 -.167E+02   0.271E-12 -.285E-13 -.909E-11   0.161E-02 -.155E-01 0.168E+02   -.815E-03 0.389E-03 -.115E+00

 POSITION                                       TOTAL-FORCE (eV/Angst)
     12.87707      7.94924      6.84854        -0.000777      0.001592      0.009579
      4.95694      7.94914      6.84836         0.002755      0.000437      0.017418
      3.63627      5.66302      6.84832         0.002069     -0.001267      0.030454
     12.89069      7.93773      1.12741        -0.005368      0.003920     -0.007394
      4.96971      7.93912      1.12853        -0.001722     -0.001366     -0.012228
      3.64996      5.65178      1.12919        -0.001590      0.000691     -0.012793
      7.60878      1.84336      2.99165        -0.005992      0.005883     -0.016567
      8.92835      8.70314      2.99118        -0.005810      0.004448     -0.016285
      2.31531      3.37690      6.84833         0.005362      0.001867      0.032991
      2.33014      3.36655      1.12948        -0.001179     -0.001424     -0.012891
     10.24821      1.84422      2.99131        -0.003582      0.004081     -0.016956
     12.87917      4.89904      4.97228         0.000974     -0.000781      0.003909
      3.63606      1.09062      6.84867         0.003025      0.000947      0.027207
      8.91584      5.66412      6.84912         0.002586     -0.003160      0.018653
      4.95485      3.37711      6.84883         0.004478      0.001591      0.031738
      3.65135      1.08064      1.12857        -0.005337      0.000924     -0.010727
      8.92822      5.65256      1.12711         0.000023      0.001465     -0.007769
      4.96947      3.36626      1.12979        -0.000087     -0.000926     -0.017023
     11.56837      8.70268      2.99081        -0.005526      0.005810     -0.014087
     11.55874      7.18503      4.97123         0.001703     -0.000236      0.012106
     12.88773      6.41669      2.99144        -0.003844      0.003480     -0.016579
      8.92877      4.13087      2.99094        -0.005553      0.005361     -0.016961
      7.59763      7.94961      6.84884        -0.001314      0.000174      0.023022
      7.60872      7.93941      1.12826         0.000838      0.000885     -0.013332
     10.24764      6.41689      2.99007        -0.002353      0.004997     -0.011947
      2.31968      0.32616      4.97232         0.000107     -0.001419      0.003346
      7.59506      3.37785      6.84877         0.003753     -0.001450      0.021143
      7.61014      3.36516      1.12844        -0.003484      0.003000     -0.010367
      6.27584      1.09153      6.84876         0.002152     -0.003593      0.019180
      6.29074      1.07989      1.12823        -0.003756      0.001173     -0.012004
     11.56758      4.13145      2.99207        -0.002338      0.001396     -0.018637
      3.64852      4.13027      2.99330        -0.004476      0.004576     -0.019831
      0.99596      1.09078      6.84835         0.003269     -0.001109      0.020759
      1.01138      1.08038      1.12855        -0.004209      0.000877     -0.012033
      6.28784      8.70360      2.99199        -0.002220      0.000423     -0.017286
      7.59993      4.89961      4.97222         0.000943     -0.002754      0.003145
      4.96921      1.84376      2.99252        -0.005857      0.003695     -0.018007
      2.32865      1.84375      2.99248        -0.003582      0.005471     -0.018038
     14.19982      7.18468      4.97183        -0.001426      0.002192      0.006634
     11.55650      5.66384      6.84868         0.001337     -0.004307      0.022682
      6.27591      5.66296      6.84857         0.004444      0.002127      0.032521
     11.56997      5.65227      1.12748        -0.002952      0.002119     -0.009753
      6.28879      5.65201      1.12872        -0.001576      0.000644     -0.013172
      7.60795      6.41722      2.99124        -0.002228      0.001928     -0.017409
      6.28923      4.13040      2.99242        -0.005198      0.004027     -0.018180
      3.63953      2.61239      4.97270        -0.000087     -0.000919      0.002215
     10.23477      3.37745      6.84826         0.004659     -0.000317      0.019887
     10.25111      3.36601      1.12793        -0.004801      0.002343     -0.009731
     10.23908      0.32606      4.97124         0.000793     -0.001196      0.012915
      8.91997      7.18528      4.97159        -0.000121     -0.001048      0.009983
     10.23903      4.89990      4.97202         0.000694     -0.002715      0.006903
      6.28051      7.18490      4.97243        -0.000698      0.000959      0.003424
      4.95918      0.32647      4.97180         0.004119     -0.003965      0.010385
      4.96835      6.41701      2.99223        -0.003953      0.003636     -0.017467
      7.59874      0.32617      4.97135         0.002021     -0.002098      0.013155
      8.91593      1.09137      6.84810         0.001428     -0.002827      0.014737
     10.23690      7.94980      6.84945        -0.000714      0.000520      0.007066
      8.93102      1.07962      1.12774        -0.004001      0.002002     -0.009558
     10.25010      7.93928      1.12746        -0.004536      0.001226     -0.013132
      4.96019      4.89898      4.97250        -0.001777     -0.001293      0.003767
[...]
      3.63244      4.14229      8.99599        -0.010480     -0.006428     -0.010166
      6.27049      8.71489      8.99445         0.025232     -0.010205     -0.001044
     11.55103      4.14157      8.99459         0.019895      0.006634     -0.003175
      8.91201      8.71462      8.99504        -0.005918      0.003385      0.000952
     10.23157      1.85582      8.99359         0.003923     -0.005597      0.005247
      2.31135      1.85531      8.99519         0.013487      0.003612     -0.004946
     11.55197      8.71408      8.99382         0.004452      0.012363      0.005737
     12.87092      6.42944      8.99448         0.013203     -0.029636      0.001241
      4.95234      1.85495      8.99531        -0.006720      0.006097     -0.002495
      7.59303      6.42877      8.99524        -0.020618     -0.008848     -0.002947
      8.91179      4.14151      8.99468         0.000343      0.007694      0.000135
      4.95120      6.42895      8.99524         0.016911     -0.017134     -0.004449
      7.59210      1.85566      8.99402        -0.001024     -0.007044      0.002345
      6.27218      4.14173      8.99564        -0.003199      0.007686     -0.004984
     10.23170      6.42868      8.99463         0.005763     -0.014833      0.003473
    total drift:                               -0.035755     -0.020836     -0.014086

  FREE ENERGIE OF THE ION-ELECTRON SYSTEM (eV)
  free  energy   TOTEN  =      -550.24130991 eV

  energy  without entropy=     -550.19998967  energy(sigma->0) =     -550.22753650

 d Force = 0.2674239E-02[ 0.167E-02, 0.368E-02]  d Energy = 0.2634967E-02 0.393E-04
 d Force = 0.3132630E+03[ 0.313E+03, 0.313E+03]  d Ewald  = 0.3132630E+03 0.207E-04

 Conjugate gradient step on ions:
 trial-energy change:   -0.002635  1 .order   -0.002674   -0.003679   -0.001670
  (g-gl).g = 0.282E-02      g.g   = 0.264E-02  gl.gl    = 0.661E-02
 g(Force)  = 0.264E-02   g(Stress)= 0.000E+00 ortho     = 0.253E-03
 gamma     =   0.42612
 trial     =   1.33792
 opt step  =   2.44975  (harmonic =   2.44975) maximal distance =0.00631336
 next E    =  -550.242043   (d E  =  -0.00337)

 reached required accuracy - stopping structural energy minimisation