 vasp.5.4.4.18Apr17-6-g9f103f2a35 (build Nov 30 2020 22:55:02) complex

 executed on             LinuxIFC date 2023.09.11  22:58:05

 INCAR:
 POTCAR:    PAW_PBE Pt 04Feb2005
 POTCAR:    PAW_PBE Pt 04Feb2005
   VRHFIN =Pt: s1d9

   TITEL  = PAW_PBE Pt 04Feb2005
   POMASS =  195.080; ZVAL   =   10.000    mass and valenz
   ENMAX  =  230.283; ENMIN  =  172.712 eV

 Optimization of the real space projectors (new method)

 maximal supplied QI-value         = 14.36
 optimisation between [QCUT,QGAM] = [ 11.92, 23.98] = [ 39.79,161.09] Ry
 Optimized for a Real-space Cutoff    1.49 Angstroem

   l    n(q)    QCUT    max X(q) W(low)/X(q) W(high)/X(q)  e(spline)
   2     10    11.920    66.195    0.79E-04    0.18E-03    0.24E-06
   2     10    11.920    64.643    0.81E-04    0.19E-03    0.24E-06
   0     11    11.920    95.520    0.28E-04    0.54E-04    0.18E-06
   0     11    11.920    63.403    0.27E-04    0.52E-04    0.17E-06
   1     10    11.920    19.961    0.18E-04    0.11E-03    0.23E-06
   1     10    11.920    13.289    0.25E-04    0.87E-04    0.19E-06
  PAW_PBE Pt 04Feb2005                  :

 POSCAR: Pt111
  positions in cartesian coordinates
 exchange correlation table for  LEXCH =        8
   RHO(1)=    0.500       N(1)  =     2000
   RHO(2)=  100.500       N(2)  =     4000

 ion  position               nearest neighbor table
   1  0.781  0.873  0.336-  73 2.64   2 2.64  43 2.64   3 2.64  72 2.64  56 2.64  71 2.84  20 2.85
                            35 2.86  27 2.86  55 2.86  34 2.87
   2  0.031  0.873  0.335-  47 2.64   3 2.64   1 2.64  23 2.64  72 2.64  57 2.65  55 2.82  68 2.82
                            65 2.85  29 2.89  39 2.89  27 2.90
   3  0.031  0.623  0.335-   9 2.64  15 2.64   2 2.64   1 2.64  56 2.64  57 2.65  55 2.82  76 2.82
                            12 2.86  28 2.89  39 2.89  35 2.89
   4  0.788  0.868  0.007-  44 2.64  74 2.64   5 2.64  75 2.64  58 2.64   6 2.64  78 2.88  21 2.88
                            19 2.89
   5  0.038  0.867  0.007-   4 2.64   6 2.64  48 2.64  24 2.64  74 2.64  59 2.64  49 2.88  70 2.88
                            78 2.88
   6  0.038  0.617  0.007-  58 2.64   5 2.64  59 2.64  10 2.64  18 2.64   4 2.64  46 2.88  70 2.88
                            21 2.88
   7  0.620  0.202  0.118-  61 2.64  19 2.64  53 2.64  11 2.64  78 2.64  22 2.64  71 2.83  79 2.85
                            42 2.87  44 2.87  80 2.88  74 2.89
   8  0.370  0.951  0.118-  60 2.64  25 2.64  19 2.64  53 2.64  49 2.64  54 2.64  69 2.81  26 2.84
                            66 2.85  16 2.87  24 2.88  75 2.89
   9  0.031  0.373  0.335-   3 2.64  56 2.64  13 2.65  47 2.65  15 2.65  63 2.65  12 2.83  77 2.83
                            62 2.84  33 2.84  30 2.90  28 2.91
  10  0.038  0.367  0.007-  64 2.64  58 2.64  18 2.64  16 2.64   6 2.64  48 2.64  54 2.87  46 2.88
                            45 2.88
  11  0.870  0.201  0.118-  54 2.64  78 2.64  49 2.64  22 2.64   7 2.64  45 2.64  65 2.80  77 2.83
                            79 2.87  64 2.87  74 2.88  48 2.88
  12  0.951  0.537  0.225-  62 2.64  77 2.64  55 2.64  20 2.64  76 2.65  67 2.65  21 2.81  45 2.81
                            46 2.82   9 2.83   3 2.86  56 2.86
  13  0.282  0.123  0.334-  43 2.64  73 2.64   9 2.65  47 2.65  15 2.65  23 2.65  62 2.80  26 2.82
                            69 2.86  33 2.87  31 2.88  36 2.89
  14  0.531  0.622  0.342-  63 2.63  23 2.63  41 2.63  57 2.64  56 2.64  73 2.65  52 2.76  51 2.81
                            37 2.92  38 2.92  66 2.92  67 2.95
  15  0.282  0.374  0.337-  57 2.63  41 2.63   3 2.64  43 2.64   9 2.65  13 2.65  36 2.83  76 2.83
                            80 2.86  28 2.87  62 2.88  50 3.01
  16  0.288  0.117  0.007-  24 2.64  75 2.64  10 2.64  48 2.64  18 2.64  44 2.64   8 2.87  53 2.88
                            54 2.88
  17  0.538  0.617  0.007-  75 2.64  64 2.64  58 2.64  42 2.64  24 2.64  59 2.64  22 2.87  25 2.88
                            60 2.89
  18  0.288  0.367  0.007-  44 2.64  10 2.64  42 2.64  59 2.64  16 2.64   6 2.64  53 2.87  61 2.87
                            46 2.88
  19  0.620  0.952  0.118-  53 2.64  25 2.64   7 2.64   8 2.64  78 2.64  21 2.64  69 2.82  20 2.83
                            71 2.84  44 2.87  75 2.88   4 2.89
  20  0.701  0.787  0.227-  12 2.64  55 2.64  69 2.64  71 2.64  67 2.64  66 2.65  56 2.81  19 2.83
                            73 2.84  25 2.84   1 2.85  21 2.85
  21  0.870  0.702  0.118-  78 2.64  70 2.64  25 2.64  46 2.64  19 2.64  45 2.64  12 2.81  55 2.84
                            20 2.85  58 2.88   4 2.88   6 2.88
  22  0.620  0.452  0.118-  60 2.64  61 2.64  45 2.64  11 2.64  25 2.64   7 2.64  79 2.84  67 2.85
                            17 2.87  42 2.88  64 2.88  51 3.00
  23  0.282  0.871  0.337-  57 2.63  14 2.63   2 2.64  73 2.64  47 2.65  13 2.65  68 2.84  31 2.84
                            66 2.86  26 2.86  29 2.87  37 2.98
  24  0.288  0.867  0.007-  16 2.64  59 2.64   5 2.64  48 2.64  75 2.64  17 2.64  60 2.88   8 2.88
                            49 2.89
  25  0.620  0.702  0.118-  19 2.64  60 2.64  21 2.64   8 2.64  45 2.64  22 2.64  20 2.84  67 2.84
                            66 2.87  75 2.87  17 2.88  58 2.88
  26  0.201  0.036  0.226-  69 2.64  65 2.64  66 2.64  68 2.64  77 2.65  62 2.65  13 2.82  54 2.82
                            49 2.83  47 2.84   8 2.84  23 2.86
  27  0.863  0.958  0.446-  29 2.64  34 2.64  32 2.64  35 2.64  39 2.64  40 2.64   1 2.86  72 2.89
                             2 2.90
  28  0.113  0.458  0.447-  35 2.64  33 2.64  39 2.64  36 2.64  30 2.64  50 2.64  15 2.87   3 2.89
                             9 2.91
  29  0.112  0.958  0.446-  27 2.64  32 2.64  33 2.64  39 2.64  37 2.64  31 2.64  23 2.87   2 2.89
                            47 2.89
  30  0.863  0.458  0.446-  35 2.64  32 2.64  52 2.64  33 2.64  28 2.64  38 2.64  63 2.86  56 2.88
                             9 2.90
  31  0.363  0.958  0.446-  34 2.64  36 2.64  33 2.64  52 2.64  29 2.64  37 2.64  23 2.84  13 2.88
                            73 2.89
  32  0.862  0.208  0.445-  40 2.64  29 2.64  30 2.64  27 2.64  33 2.64  38 2.64  63 2.84  72 2.88
                            47 2.89
  33  0.113  0.208  0.444-  28 2.64  30 2.64  31 2.64  29 2.64  36 2.64  32 2.64   9 2.84  47 2.86
                            13 2.87
  34  0.613  0.958  0.446-  31 2.64  27 2.64  36 2.64  35 2.64  52 2.64  40 2.65   1 2.87  43 2.89
                            73 2.89
  35  0.863  0.707  0.447-  28 2.64  30 2.64  34 2.64  27 2.64  52 2.64  39 2.64   1 2.86  56 2.89
                             3 2.89
  36  0.363  0.208  0.446-  40 2.64  31 2.64  34 2.64  28 2.64  33 2.64  50 2.64  15 2.83  13 2.89
                            43 2.89
  37  0.362  0.708  0.454-  52 2.64  39 2.64  29 2.64  31 2.64  50 2.65  38 2.65  57 2.90  14 2.92
                            23 2.98
  38  0.613  0.458  0.456-  52 2.64  40 2.64  30 2.64  32 2.64  50 2.65  37 2.65  14 2.92  41 2.93
                            63 3.04
  39  0.113  0.707  0.447-  28 2.64  37 2.64  29 2.64  27 2.64  35 2.64  50 2.64  57 2.77   3 2.89
                             2 2.89
  40  0.612  0.208  0.447-  32 2.64  36 2.64  38 2.64  50 2.64  27 2.64  34 2.65  41 2.76  43 2.91
                            72 2.92
  41  0.531  0.373  0.342-  63 2.63  15 2.63  14 2.63  57 2.63  72 2.65  43 2.65  40 2.76  51 2.80
                            38 2.93  80 2.94  50 2.94  79 2.96
  42  0.538  0.367  0.007-  74 2.64  59 2.64  64 2.64  17 2.64  18 2.64  44 2.64   7 2.87  22 2.88
                            61 2.89
  43  0.531  0.123  0.335-  72 2.64  13 2.64   1 2.64  15 2.64  73 2.64  41 2.65  80 2.79  71 2.84
                            69 2.85  34 2.89  36 2.89  40 2.91
  44  0.538  0.117  0.007-   4 2.64  18 2.64  75 2.64  74 2.64  42 2.64  16 2.64  19 2.87   7 2.87
                            53 2.89
  45  0.870  0.452  0.118-  54 2.64  46 2.64  22 2.64  25 2.64  11 2.64  21 2.64  12 2.81  77 2.82
                            67 2.87  58 2.88  64 2.88  10 2.88
  46  0.120  0.452  0.118-  45 2.64  21 2.64  70 2.64  53 2.64  54 2.64  61 2.64  62 2.82  12 2.82
                            76 2.87   6 2.88  10 2.88  18 2.88
  47  0.031  0.123  0.334-   2 2.64  72 2.64  13 2.65   9 2.65  23 2.65  63 2.65  77 2.81  26 2.84
                            65 2.84  33 2.86  29 2.89  32 2.89
  48  0.037  0.117  0.007-  74 2.64  64 2.64   5 2.64  24 2.64  16 2.64  10 2.64  49 2.87  54 2.88
                            11 2.88
  49  0.120  0.952  0.118-  70 2.64  78 2.64  11 2.64  54 2.64   8 2.64  60 2.64  65 2.82  26 2.83
                            68 2.86  48 2.87   5 2.88  24 2.89
  50  0.362  0.458  0.456-  40 2.64  39 2.64  36 2.64  28 2.64  38 2.65  37 2.65  57 2.92  41 2.94
                            15 3.01
  51  0.451  0.537  0.235-  68 2.63  76 2.63  66 2.63  80 2.63  79 2.63  67 2.63  41 2.80  14 2.81
                            57 2.83  60 2.98  61 2.98  22 3.00
  52  0.612  0.707  0.447-  30 2.64  37 2.64  31 2.64  38 2.64  35 2.64  34 2.64  14 2.76  73 2.90
                            56 2.91
  53  0.370  0.201  0.118-  19 2.64   7 2.64   8 2.64  46 2.64  61 2.64  54 2.64  69 2.79  62 2.85
                            80 2.86  18 2.87  16 2.88  44 2.89
  54  0.119  0.202  0.118-  45 2.64  11 2.64  49 2.64  46 2.64   8 2.64  53 2.64  26 2.82  62 2.84
                            77 2.84  10 2.87  48 2.88  16 2.88
  55  0.951  0.787  0.227-  12 2.64  20 2.64  65 2.64  76 2.64  68 2.64  71 2.64   3 2.82   2 2.82
                            78 2.84  21 2.84  70 2.85   1 2.86
  56  0.781  0.623  0.335-   9 2.64  73 2.64  63 2.64   1 2.64   3 2.64  14 2.64  20 2.81  67 2.82
                            12 2.86  30 2.88  35 2.89  52 2.91
  57  0.282  0.622  0.342-  15 2.63  23 2.63  41 2.63  14 2.64   3 2.65   2 2.65  39 2.77  51 2.83
                            37 2.90  50 2.92  68 2.93  76 2.93
  58  0.788  0.617  0.007-   6 2.64  10 2.64  17 2.64   4 2.64  75 2.64  64 2.64  21 2.88  45 2.88
                            25 2.88
  59  0.288  0.617  0.007-  24 2.64  42 2.64   6 2.64   5 2.64  18 2.64  17 2.64  60 2.87  61 2.87
                            70 2.88
  60  0.370  0.702  0.118-   8 2.64  25 2.64  22 2.64  61 2.64  49 2.64  70 2.64  66 2.85  68 2.87
                            59 2.87  24 2.88  17 2.89  51 2.98
  61  0.370  0.452  0.118-   7 2.64  22 2.64  60 2.64  53 2.64  46 2.64  70 2.64  80 2.84  76 2.87
                            59 2.87  18 2.87  42 2.89  51 2.98
  62  0.201  0.287  0.227-  12 2.64  69 2.64  80 2.64  76 2.64  77 2.65  26 2.65  13 2.80  46 2.82
                             9 2.84  54 2.84  53 2.85  15 2.88
  63  0.780  0.374  0.336-  14 2.63  41 2.63  56 2.64  72 2.64   9 2.65  47 2.65  67 2.83  79 2.84
                            32 2.84  30 2.86  77 2.88  38 3.04
  64  0.788  0.367  0.007-  48 2.64  74 2.64  10 2.64  17 2.64  42 2.64  58 2.64  11 2.87  45 2.88
                            22 2.88
  65  0.951  0.037  0.225-  77 2.64  26 2.64  71 2.64  55 2.64  68 2.65  79 2.65  11 2.80  78 2.81
                            49 2.82  47 2.84   2 2.85  72 2.87
  66  0.451  0.786  0.228-  67 2.62  51 2.63  68 2.63  26 2.64  20 2.65  69 2.65  73 2.81  60 2.85
[...]
   0.329E+01 0.102E+01 -.135E+04   -.332E+01 -.107E+01 0.135E+04   0.362E-01 0.491E-01 0.475E+00   -.544E-03 0.176E-01 0.243E-01
   -.246E+00 0.187E+01 0.269E+04   0.272E+00 -.187E+01 -.269E+04   -.170E-01 -.299E-01 -.931E-01   -.316E-02 0.136E-02 -.304E-01
   -.129E+01 0.800E+01 0.269E+04   0.137E+01 -.805E+01 -.269E+04   -.712E-01 -.229E-01 -.989E-01   0.309E-02 0.600E-02 -.279E-01
   -.646E+01 -.100E+01 0.268E+04   0.654E+01 0.934E+00 -.268E+04   -.256E-01 0.743E-01 -.618E-01   -.402E-02 -.534E-02 -.268E-01
   0.159E+01 -.767E+01 0.136E+04   -.158E+01 0.781E+01 -.136E+04   -.109E-01 -.155E+00 -.377E+00   -.385E-02 0.280E-02 -.310E-01
   0.445E+00 0.826E+01 0.137E+04   -.475E+00 -.842E+01 -.137E+04   0.316E-01 0.167E+00 -.319E+00   -.201E-02 0.718E-02 -.178E-01
   0.471E+00 0.109E+01 -.133E+04   -.492E+00 -.112E+01 0.133E+04   0.184E-01 0.370E-01 0.418E+00   0.121E-02 0.136E-01 0.346E-01
   -.237E+01 -.445E+01 0.269E+04   0.238E+01 0.442E+01 -.269E+04   0.466E-02 0.503E-01 -.201E+00   -.143E-02 -.680E-02 -.224E-01
   0.706E+01 -.373E+01 0.138E+04   -.718E+01 0.380E+01 -.138E+04   0.116E+00 -.857E-01 -.308E+00   0.155E-01 -.726E-03 -.164E-01
   -.383E+00 -.111E+01 0.240E+02   0.384E+00 0.977E+00 -.241E+02   -.601E-02 0.148E+00 0.120E+00   0.338E-03 -.108E-02 0.189E-01
   0.799E+00 0.479E+00 -.132E+04   -.836E+00 -.438E+00 0.132E+04   0.385E-01 -.351E-01 0.451E+00   0.116E-01 -.988E-02 0.353E-01
   -.405E+01 -.371E+00 -.142E+04   0.411E+01 0.384E+00 0.142E+04   -.664E-01 -.976E-02 0.270E+00   0.230E-02 0.161E-02 0.375E-02
   0.265E+01 0.143E+01 -.137E+04   -.265E+01 -.140E+01 0.137E+04   0.199E-01 -.910E-02 0.322E+00   0.135E-01 0.911E-02 0.111E-01
   -.342E+01 0.400E+00 0.269E+04   0.341E+01 -.411E+00 -.269E+04   0.423E-01 0.307E-02 -.170E+00   -.362E-02 0.168E-02 -.233E-01
   0.935E+01 0.328E+01 0.267E+04   -.943E+01 -.338E+01 -.267E+04   -.250E-01 0.450E-01 0.109E+00   0.395E-02 0.141E-02 -.223E-01
   -.111E+02 -.851E+01 0.268E+04   0.111E+02 0.850E+01 -.268E+04   0.267E-01 0.506E-01 -.688E-01   -.647E-02 -.745E-02 -.242E-01
   -.257E+01 0.165E+01 0.137E+04   0.260E+01 -.167E+01 -.137E+04   -.143E-01 0.705E-02 -.504E+00   -.669E-02 0.146E-02 -.200E-01
   0.132E+01 0.758E+00 0.570E+01   -.134E+01 -.773E+00 -.569E+01   0.231E-01 0.304E-01 -.502E-01   0.336E-02 -.323E-02 0.215E-01
   -.415E+00 -.258E+01 0.136E+04   0.443E+00 0.256E+01 -.136E+04   -.227E-01 0.458E-01 -.523E+00   -.413E-02 -.397E-02 -.176E-01
   0.121E+02 -.729E+01 0.133E+04   -.123E+02 0.737E+01 -.133E+04   0.190E+00 -.775E-01 -.615E+00   -.539E-02 0.399E-02 -.182E-01
   -.204E-01 -.383E+01 -.136E+04   -.806E-02 0.385E+01 0.136E+04   0.244E-01 -.295E-01 0.360E+00   0.826E-03 -.182E-01 0.139E-01
   0.564E+00 0.143E+02 0.268E+04   -.553E+00 -.143E+02 -.268E+04   -.408E-03 -.530E-01 -.806E-01   0.336E-02 0.946E-02 -.244E-01
   0.644E+01 0.265E+01 0.136E+04   -.656E+01 -.276E+01 -.136E+04   0.132E+00 0.116E+00 -.397E+00   -.308E-02 0.432E-02 -.242E-01
   0.115E+00 0.292E+01 0.240E+02   -.117E+00 -.292E+01 -.241E+02   0.221E-02 0.176E-01 0.121E+00   0.236E-02 -.113E-01 0.158E-01
   -.274E+00 -.855E+00 -.268E+04   0.240E+00 0.897E+00 0.268E+04   0.305E-01 -.309E-01 0.100E+00   -.515E-02 -.106E-01 0.112E-01
   0.144E+02 0.544E+01 -.268E+04   -.144E+02 -.541E+01 0.268E+04   -.406E-01 -.351E-01 0.669E-01   0.873E-02 0.164E-01 0.165E-01
   0.195E+01 -.145E+02 -.267E+04   -.195E+01 0.145E+02 0.267E+04   0.429E-02 0.192E-01 0.636E-01   -.983E-02 -.188E-01 0.172E-01
   -.112E+02 0.577E+01 -.267E+04   0.111E+02 -.574E+01 0.267E+04   0.588E-01 -.355E-01 -.877E-02   -.491E-02 0.144E-01 0.219E-01
   -.260E+01 -.131E+02 -.267E+04   0.254E+01 0.132E+02 0.267E+04   0.508E-01 0.116E-01 0.233E-01   0.104E-01 -.197E-01 0.200E-01
   -.110E+02 0.894E+01 -.266E+04   0.110E+02 -.886E+01 0.266E+04   0.408E-01 -.698E-01 -.496E-01   -.146E-01 -.451E-02 0.259E-01
   0.961E+00 0.194E+01 -.266E+04   -.993E+00 -.188E+01 0.266E+04   0.305E-01 -.484E-01 -.168E-01   -.811E-04 -.262E-02 0.191E-01
   0.452E+00 0.713E+00 -.268E+04   -.477E+00 -.657E+00 0.268E+04   0.163E-01 -.489E-01 0.138E+00   0.108E-01 -.849E-02 0.954E-02
   0.144E+01 -.120E+01 -.268E+04   -.146E+01 0.124E+01 0.268E+04   0.114E-01 -.474E-01 0.823E-01   0.418E-02 0.772E-02 0.105E-01
   0.109E+02 0.119E+02 -.267E+04   -.109E+02 -.118E+02 0.267E+04   -.339E-02 -.107E+00 -.128E-01   0.187E-01 -.206E-02 0.212E-01
   -.137E+01 -.201E+02 -.272E+04   0.135E+01 0.200E+02 0.272E+04   0.209E-01 0.922E-01 0.180E+00   0.818E-03 -.904E-02 0.261E-01
   -.184E+02 0.938E+01 -.273E+04   0.183E+02 -.933E+01 0.273E+04   0.109E+00 -.527E-01 0.305E+00   -.399E-02 0.300E-02 0.260E-01
   0.186E+02 -.132E+02 -.268E+04   -.184E+02 0.131E+02 0.268E+04   -.245E+00 0.142E+00 0.315E-01   -.358E-03 -.177E-02 0.196E-02
   -.109E+01 0.246E+02 -.268E+04   0.108E+01 -.243E+02 0.268E+04   0.519E-03 -.382E+00 0.110E+00   0.185E-02 -.436E-02 -.789E-03
   -.151E+01 0.355E+01 -.143E+04   0.152E+01 -.361E+01 0.143E+04   -.188E-01 0.693E-01 0.256E+00   -.482E-03 -.127E-02 0.122E-02
   0.302E+01 -.101E+02 0.267E+04   -.300E+01 0.102E+02 -.267E+04   -.400E-01 -.303E-02 0.107E+00   0.972E-03 -.399E-02 -.222E-01
   0.176E+01 0.332E+01 -.134E+04   -.181E+01 -.325E+01 0.134E+04   0.439E-01 -.535E-01 0.533E+00   0.142E-01 -.136E-01 0.267E-01
   -.339E+01 -.488E+01 0.269E+04   0.342E+01 0.493E+01 -.269E+04   0.262E-01 -.366E-01 -.817E-01   -.528E-02 0.466E-03 -.257E-01
   0.563E+01 -.503E+01 0.137E+04   -.574E+01 0.508E+01 -.137E+04   0.126E+00 -.429E-01 -.337E+00   0.923E-02 -.103E-01 -.151E-01
   -.736E+01 -.479E+01 0.137E+04   0.754E+01 0.481E+01 -.137E+04   -.192E+00 -.182E-01 -.366E+00   -.129E-01 -.981E-02 -.162E-01
   -.598E+00 0.682E-01 -.132E+04   0.607E+00 -.152E-01 0.132E+04   -.157E-01 -.465E-01 0.434E+00   -.851E-02 -.101E-01 0.384E-01
   0.134E+01 0.223E+01 0.269E+04   -.133E+01 -.225E+01 -.269E+04   -.254E-02 -.126E-01 -.197E+00   0.546E-02 0.436E-02 -.234E-01
   -.163E+00 0.885E+01 0.137E+04   0.225E+00 -.902E+01 -.137E+04   -.592E-01 0.181E+00 -.333E+00   0.448E-02 0.147E-01 -.166E-01
   0.151E+02 0.896E+01 -.273E+04   -.150E+02 -.891E+01 0.273E+04   -.743E-01 -.488E-01 0.264E+00   0.559E-02 0.287E-02 0.276E-01
   -.308E+00 0.729E+00 -.975E+02   0.334E+00 -.762E+00 0.982E+02   -.184E-01 0.255E-01 -.738E+00   -.843E-03 0.265E-02 -.829E-02
   -.191E+02 -.122E+02 -.268E+04   0.189E+02 0.121E+02 0.268E+04   0.296E+00 0.165E+00 0.712E-01   0.169E-02 -.274E-02 0.276E-02
   -.691E+01 -.552E+01 0.137E+04   0.704E+01 0.562E+01 -.137E+04   -.139E+00 -.999E-01 -.312E+00   -.965E-02 -.288E-02 -.191E-01
   -.102E+01 -.305E+00 0.137E+04   0.106E+01 0.287E+00 -.137E+04   -.274E-01 0.912E-02 -.254E+00   -.466E-02 0.356E-02 -.869E-02
   -.160E+01 0.945E+00 0.375E+01   0.163E+01 -.956E+00 -.378E+01   -.407E-01 0.270E-01 -.261E-01   -.254E-02 -.359E-02 0.264E-01
   -.214E+01 0.144E+01 -.134E+04   0.211E+01 -.149E+01 0.134E+04   0.893E-02 0.540E-01 0.482E+00   0.676E-02 0.151E-01 0.251E-01
   0.244E+01 -.118E+01 -.142E+04   -.251E+01 0.122E+01 0.142E+04   0.626E-01 -.351E-01 0.210E+00   -.274E-02 0.112E-02 0.260E-02
   0.405E+01 -.263E+01 0.269E+04   -.406E+01 0.255E+01 -.269E+04   -.528E-02 0.944E-01 -.656E-01   -.457E-03 -.417E-02 -.262E-01
   -.654E+01 0.525E+01 0.267E+04   0.666E+01 -.534E+01 -.267E+04   -.229E-01 0.144E-01 0.154E+00   0.624E-03 -.154E-03 -.240E-01
   0.775E+00 0.131E+02 0.132E+04   -.770E+00 -.132E+02 -.132E+04   -.136E-02 0.191E+00 -.624E+00   0.638E-02 -.239E-02 -.161E-01
[...]
   0.602E+01 -.986E+00 -.641E+01   -.608E+01 0.970E+00 0.645E+01   0.677E-01 0.346E-01 -.589E-01   -.249E-02 -.325E-02 0.115E-01
   -.185E+01 0.542E+01 -.156E+02   0.188E+01 -.543E+01 0.157E+02   -.507E-01 0.236E-01 -.643E-01   0.860E-02 -.727E-02 0.978E-02
   -.783E+00 0.364E+00 0.345E+02   0.710E+00 -.304E+00 -.347E+02   0.899E-01 -.715E-01 0.234E+00   -.537E-02 0.802E-03 0.182E-01
   -.643E+01 0.462E+01 0.135E+04   0.659E+01 -.473E+01 -.135E+04   -.157E+00 0.118E+00 -.399E+00   -.461E-02 0.143E-02 -.200E-01
   0.732E-01 -.166E+01 0.745E+01   -.609E-01 0.169E+01 -.744E+01   -.171E-01 -.343E-01 -.374E-01   0.953E-03 -.748E-02 0.192E-01
   -.228E+01 0.200E+01 -.134E+04   0.231E+01 -.192E+01 0.134E+04   -.410E-01 -.494E-01 0.501E+00   -.893E-02 -.167E-01 0.284E-01
   -.104E+01 -.347E+01 -.134E+04   0.958E+00 0.351E+01 0.134E+04   0.599E-01 -.421E-01 0.533E+00   0.174E-01 -.107E-01 0.286E-01
   0.548E+01 -.302E+01 0.269E+04   -.545E+01 0.306E+01 -.269E+04   -.749E-01 -.483E-01 -.723E-01   0.347E-02 0.272E-02 -.275E-01
   0.112E+01 0.585E+01 0.269E+04   -.116E+01 -.591E+01 -.269E+04   0.610E-01 -.166E-01 -.104E+00   -.327E-02 0.416E-02 -.252E-01
   -.558E+01 -.916E+00 -.217E+02   0.560E+01 0.888E+00 0.218E+02   -.448E-01 0.453E-01 -.133E+00   0.693E-02 -.353E-02 0.812E-02
   0.187E+01 -.130E+01 0.282E+02   -.189E+01 0.130E+01 -.284E+02   0.351E-01 -.174E-01 0.197E+00   -.646E-02 0.899E-02 0.169E-01
   0.293E+01 0.209E+01 0.137E+04   -.291E+01 -.212E+01 -.137E+04   -.319E-01 0.195E-01 -.500E+00   0.954E-03 0.323E-02 -.171E-01
   0.406E+01 -.492E+01 -.771E+01   -.411E+01 0.496E+01 0.775E+01   0.310E-01 -.596E-01 -.422E-01   0.411E-02 0.925E-02 0.586E-02
   -.370E+01 -.479E+01 -.206E+02   0.373E+01 0.482E+01 0.207E+02   -.162E-01 -.534E-01 -.500E-01   -.459E-02 0.975E-02 -.322E-02
   -.537E-01 0.110E+00 0.102E+00   -.640E-12 0.663E-12 -.371E-11   0.394E-01 -.972E-01 -.243E+00   0.487E-01 -.700E-01 0.115E+00

 POSITION                                       TOTAL-FORCE (eV/Angst)
     12.85243      7.98654      7.39638        -0.002303      0.004570     -0.002445
      4.93212      7.99100      7.37098         0.006944     -0.015998     -0.009751
      3.60872      5.69762      7.38354         0.015744      0.001426     -0.004645
     12.89725      7.93444      0.14356         0.005110     -0.034082     -0.006083
      4.97637      7.93246      0.14799         0.015833     -0.063063     -0.043376
      3.65717      5.64658      0.15310         0.050196     -0.003238     -0.013848
      7.61072      1.85070      2.60369        -0.003907      0.003030      0.032238
      8.92939      8.68761      2.56533        -0.004711      0.016471     -0.001320
      2.29264      3.41159      7.34746        -0.003063      0.014673     -0.033446
      2.33740      3.35970      0.15263         0.018554      0.017067     -0.146351
     10.24276      1.84817      2.55852         0.012362     -0.011745     -0.010004
     12.87144      4.90548      4.94713        -0.002690      0.010389      0.008344
      3.61200      1.12760      7.33557         0.003334      0.001783     -0.035503
      8.89579      5.69953      7.52942        -0.016348     -0.003304      0.018767
      4.93594      3.41762      7.42633         0.007562      0.013880      0.011347
      3.65614      1.07267      0.15257         0.022384     -0.004605     -0.147357
      8.93875      5.64610      0.14648        -0.108255     -0.054053      0.193431
      4.97730      3.35924      0.15656         0.070508      0.034055      0.014429
     11.57236      8.69950      2.58112         0.006625     -0.007475      0.002923
     11.55348      7.19854      4.99237        -0.001726      0.006271     -0.013049
     12.89212      6.41295      2.59212         0.001873      0.008877     -0.000491
      8.91864      4.13395      2.65309        -0.002565      0.003767     -0.004194
      7.57107      7.98192      7.40998        -0.003993     -0.010276      0.012137
      7.61673      7.93237      0.14732         0.011983     -0.088095      0.004920
     10.24299      6.40910      2.60259        -0.001388      0.003012      0.024041
      2.31321      0.33386      4.94426         0.000971      0.015916     -0.017121
     14.16268      8.76664      9.82246        -0.006192      0.002599     -0.002836
      3.59974      4.19302      9.83940        -0.008687      0.004528      0.001308
      6.24066      8.76643      9.82233        -0.005466      0.014144     -0.005203
     11.52142      4.19307      9.81035         0.002181      0.003337     -0.011461
      8.88180      8.76635      9.80571        -0.001593      0.014240     -0.009623
     10.20190      1.90668      9.79454        -0.002014     -0.000915     -0.015422
      2.28080      1.90675      9.78653        -0.004009      0.009253     -0.033508
     11.51990      8.76702      9.82591        -0.000442      0.002026      0.002359
     12.84122      6.47873      9.82209        -0.002223      0.003608      0.003176
      4.92070      1.90652      9.80556        -0.005265     -0.003161     -0.002354
      7.56193      6.48186      9.97012        -0.003256      0.018303      0.032815
      8.88665      4.18973     10.00417         0.007297      0.000974      0.031441
      4.92527      6.47640      9.84356        -0.017187      0.014986      0.034974
      7.56245      1.91113      9.85113        -0.007045     -0.006058      0.047703
      7.57397      3.41223      7.54455        -0.006591      0.021988      0.023381
      7.61765      3.36049      0.14774        -0.011963      0.100575      0.198508
      6.25105      1.12587      7.36896         0.002913      0.023510      0.003438
      6.29706      1.07393      0.14511         0.051074      0.019758     -0.031648
     11.56220      4.13187      2.56406         0.016596     -0.012531     -0.007886
      3.66371      4.13141      2.58075        -0.019130     -0.011610      0.001347
      0.97380      1.12807      7.33450        -0.009817      0.000638     -0.037529
      1.01556      1.07319      0.14896         0.015611     -0.026808     -0.162499
      6.29394      8.68770      2.56698         0.008048      0.022549     -0.002402
      6.23799      4.18988     10.00381        -0.013400      0.004290      0.029287
      7.59135      4.91327      5.21424         0.000581     -0.001111      0.008328
     10.19773      6.47607      9.84040         0.006789      0.016813      0.036776
      4.98199      1.84906      2.57003        -0.016791     -0.002012     -0.000106
      2.33336      1.84125      2.55591        -0.000094     -0.002064     -0.008034
     14.19081      7.19868      4.99541        -0.002510      0.006427     -0.015016
     11.53369      5.69832      7.37045        -0.020191      0.001440     -0.004301
      6.25005      5.70106      7.53608         0.007494     -0.003821      0.017987
     11.57861      5.64653      0.14676        -0.027257      0.014889     -0.021752
      6.29731      5.64627      0.15421         0.101194     -0.071061      0.228266
      7.61010      6.40222      2.67152         0.005143     -0.006965     -0.015934
[...]
      8.91075      7.19216      5.03127         0.005025      0.006008     -0.002473
     10.22494      4.91563      5.01477         0.004331      0.003398     -0.012134
      6.27194      7.19297      5.03423        -0.005313      0.009347     -0.005656
      4.95070      0.34107      4.92539         0.005918     -0.007128      0.022192
      4.97913      6.40851      2.61328         0.009372     -0.003720      0.020432
      7.59270      0.33797      4.98857        -0.003073      0.001685     -0.003477
      8.89379      1.12711      7.36312        -0.013512      0.022364      0.001236
     10.21303      7.98955      7.36412        -0.015062     -0.011768     -0.005459
      8.93714      1.07441      0.14261        -0.038742     -0.001559     -0.035213
     10.25717      7.93299      0.14549         0.014853     -0.071906     -0.044617
      4.95650      4.91530      5.04723        -0.010457      0.003266     -0.004954
     11.54781      2.62848      4.93355         0.016529     -0.017317     -0.011513
     14.21196      8.69878      2.58217        -0.007750     -0.004006     -0.001399
      8.90462      2.63126      5.01695        -0.001732     -0.006152     -0.008908
      6.27730      2.63091      5.04414         0.001227     -0.003893      0.001992
    total drift:                                0.034419     -0.057148     -0.026033

  FREE ENERGIE OF THE ION-ELECTRON SYSTEM (eV)
  free  energy   TOTEN  =      -512.64911113 eV

  energy  without entropy=     -512.59423704  energy(sigma->0) =     -512.63081977

 d Force = 0.1624943E-02[ 0.126E-02, 0.199E-02]  d Energy = 0.1657839E-02-0.329E-04
 d Force = 0.4670729E+01[ 0.470E+01, 0.464E+01]  d Ewald  = 0.4670726E+01 0.275E-05

 Conjugate gradient step on ions:
 trial-energy change:   -0.001658  1 .order   -0.001625   -0.001987   -0.001262
  (g-gl).g = 0.274E-02      g.g   = 0.276E-02  gl.gl    = 0.507E-02
 g(Force)  = 0.276E-02   g(Stress)= 0.000E+00 ortho     =-0.303E-03
 gamma     =   0.54098
 trial     =   0.76415
 opt step  =   2.09497  (harmonic =   2.09497) maximal distance =0.01137661
 next E    =  -512.650178   (d E  =  -0.00272)

 reached required accuracy - stopping structural energy minimisation