 vasp.5.4.4.18Apr17-6-g9f103f2a35 (build Nov 30 2020 22:55:02) complex

 executed on             LinuxIFC date 2023.08.07  21:51:23

 INCAR:
 POTCAR:    PAW_PBE Pt 04Feb2005
 POTCAR:    PAW_PBE H 15Jun2001
 POTCAR:    PAW_PBE Pt 04Feb2005
   VRHFIN =Pt: s1d9

   TITEL  = PAW_PBE Pt 04Feb2005
   POMASS =  195.080; ZVAL   =   10.000    mass and valenz
   ENMAX  =  230.283; ENMIN  =  172.712 eV

 POTCAR:    PAW_PBE H 15Jun2001
   VRHFIN =H: ultrasoft test

   TITEL  = PAW_PBE H 15Jun2001
   POMASS =    1.000; ZVAL   =    1.000    mass and valenz
   ENMAX  =  250.000; ENMIN  =  200.000 eV

 Optimization of the real space projectors (new method)

 maximal supplied QI-value         = 14.36
 optimisation between [QCUT,QGAM] = [ 11.92, 23.98] = [ 39.79,161.09] Ry
 Optimized for a Real-space Cutoff    1.49 Angstroem

   l    n(q)    QCUT    max X(q) W(low)/X(q) W(high)/X(q)  e(spline)
   2     10    11.920    66.195    0.79E-04    0.18E-03    0.24E-06
   2     10    11.920    64.643    0.81E-04    0.19E-03    0.24E-06
   0     11    11.920    95.520    0.28E-04    0.54E-04    0.18E-06
   0     11    11.920    63.403    0.27E-04    0.52E-04    0.17E-06
   1     10    11.920    19.961    0.18E-04    0.11E-03    0.23E-06
   1     10    11.920    13.289    0.25E-04    0.87E-04    0.19E-06
 Optimization of the real space projectors (new method)

 maximal supplied QI-value         = 34.20
 optimisation between [QCUT,QGAM] = [ 11.97, 23.94] = [ 40.13,160.53] Ry
 Optimized for a Real-space Cutoff    1.18 Angstroem

   l    n(q)    QCUT    max X(q) W(low)/X(q) W(high)/X(q)  e(spline)
   0      8    11.971    19.460    0.15E-03    0.31E-03    0.25E-06
   0      8    11.971    12.209    0.13E-03    0.29E-03    0.25E-06
   1      8    11.971     4.655    0.22E-03    0.24E-03    0.21E-06
  PAW_PBE Pt 04Feb2005                  :
  PAW_PBE H 15Jun2001                   :

 POSCAR: Pt111\(1\1\1)\(2)
  positions in direct lattice
  velocities in cartesian coordinates
 exchange correlation table for  LEXCH =        8
   RHO(1)=    0.500       N(1)  =     2000
   RHO(2)=  100.500       N(2)  =     4000

 ion  position               nearest neighbor table
   1  1.000  0.000  0.056-   5 2.64   9 2.64  13 2.64  29 2.64  57 2.64  37 2.64  42 2.82  54 2.83
                            14 2.91
   2  0.333  0.169  0.179-  14 2.62  26 2.62   6 2.63  42 2.64  30 2.64  38 2.67  11 2.79   7 2.82
                             9 2.89  21 2.90  13 2.92  15 3.02
   3  0.168  0.334  0.310-  43 2.62  15 2.62  39 2.62   7 2.62  31 2.66  27 2.66   8 2.71   6 2.79
                            48 2.99  12 2.99  14 3.02  10 3.03
   4  0.001  0.001  0.415-   8 2.64  16 2.64  32 2.64  12 2.64  40 2.65  60 2.65   7 2.80  27 2.83
                            63 2.90
   5  1.000  0.250  0.056-   1 2.64  45 2.64  33 2.64   9 2.64  29 2.64  25 2.64  18 2.85  10 2.90
                            14 2.90
   6  0.333  0.417  0.193-  26 2.63  62 2.63  34 2.63  10 2.63  14 2.63   2 2.63  43 2.79   3 2.79
                            15 2.79  49 3.14   9 3.14  45 3.14
   7  0.169  0.087  0.298-  15 2.62   3 2.62  11 2.64  27 2.64  35 2.67  63 2.67  16 2.80   4 2.80
                             2 2.82  14 2.82  42 2.92  12 3.16
   8  1.000  0.250  0.422-   4 2.64  36 2.64  32 2.64  28 2.64  48 2.66  12 2.66   3 2.71  27 2.94
                            31 2.94
   9  0.250  0.250  0.056-  21 2.64  13 2.64   1 2.64  49 2.64  45 2.64   5 2.64  14 2.89   2 2.89
                             6 3.14
  10  0.086  0.417  0.179-  34 2.62  14 2.62   6 2.63  46 2.64  18 2.65  22 2.67  31 2.79  39 2.82
                            45 2.89   5 2.90  33 2.91   3 3.03
  11  0.417  0.085  0.296-  19 2.62   7 2.64  35 2.64  23 2.64  15 2.66  47 2.66   2 2.79  30 2.82
                            16 2.83  38 2.86  20 2.87  24 2.94
  12  0.248  0.246  0.439-  66 1.83  65 1.86   4 2.64  16 2.64   8 2.66  24 2.66  48 2.70  52 2.70
                            15 2.99   3 2.99   7 3.16
  13  0.250  0.000  0.056-  21 2.64   9 2.64  17 2.64   1 2.64  37 2.64  41 2.64  42 2.82  38 2.83
                             2 2.92
  14  0.086  0.169  0.179-   2 2.62  10 2.62   6 2.63  42 2.64  18 2.64  54 2.67  27 2.79   7 2.82
                             9 2.89   5 2.90   1 2.91   3 3.02
  15  0.416  0.334  0.310-  43 2.62   3 2.62  55 2.62   7 2.62  19 2.66  11 2.66  24 2.71   6 2.79
                            52 2.99  12 2.99   2 3.02  26 3.03
  16  0.250  0.001  0.415-  24 2.64   4 2.64  20 2.64  12 2.64  40 2.65  44 2.65   7 2.80  11 2.83
                            35 2.90
  17  0.500  0.000  0.056-  29 2.64  25 2.64  13 2.64  21 2.64  41 2.64  53 2.64  38 2.83  30 2.86
                            58 2.86
  18  0.834  0.167  0.177-  54 2.64  22 2.64  14 2.64  10 2.65  58 2.66  30 2.66  31 2.82  27 2.82
                            23 2.84   5 2.85  29 2.86  25 2.86
  19  0.665  0.333  0.296-  11 2.62  55 2.64  59 2.64  23 2.64  15 2.66  31 2.66  26 2.79  30 2.82
                            64 2.83  22 2.86  28 2.87  24 2.94
  20  0.500  1.000  0.417-  24 2.64  56 2.64  32 2.64  28 2.64  16 2.64  44 2.64  23 2.86  47 2.87
                            11 2.87
  21  0.500  0.250  0.056-  25 2.64  61 2.64   9 2.64  13 2.64  49 2.64  17 2.64  30 2.85  26 2.90
                             2 2.90
  22  0.833  0.416  0.175-  18 2.64  30 2.64  50 2.64  46 2.64  26 2.67  10 2.67  59 2.79  25 2.83
                            61 2.83  33 2.83  19 2.86  31 2.86
  23  0.667  0.083  0.296-  47 2.64  11 2.64  51 2.64  27 2.64  19 2.64  31 2.64  58 2.84  18 2.84
                            30 2.84  20 2.86  28 2.86  32 2.86
  24  0.500  0.250  0.422-  66 2.05  16 2.64  64 2.64  20 2.64  28 2.64  52 2.66  12 2.66  15 2.71
                            11 2.94  19 2.94
  25  0.750  0.250  0.056-  17 2.64  21 2.64  29 2.64  61 2.64  33 2.64   5 2.64  22 2.83  18 2.86
                            30 2.86
  26  0.581  0.417  0.179-  62 2.62   2 2.62   6 2.63  50 2.64  30 2.65  22 2.67  19 2.79  55 2.82
                            49 2.89  21 2.90  61 2.91  15 3.03
  27  0.918  0.085  0.296-  31 2.62   7 2.64  63 2.64  23 2.64   3 2.66  51 2.66  14 2.79  18 2.82
                             4 2.83  54 2.86  32 2.87   8 2.94
  28  0.750  0.250  0.417-  24 2.64   8 2.64  32 2.64  20 2.64  64 2.64  36 2.64  23 2.86  31 2.87
                            19 2.87
  29  0.750  0.000  0.056-  17 2.64  25 2.64   5 2.64  53 2.64   1 2.64  57 2.64  54 2.83  18 2.86
                            58 2.86
  30  0.583  0.167  0.177-  38 2.64  22 2.64   2 2.64  26 2.65  58 2.66  18 2.66  19 2.82  11 2.82
                            23 2.84  21 2.85  17 2.86  25 2.86
  31  0.918  0.333  0.296-  27 2.62  39 2.64  59 2.64  23 2.64   3 2.66  19 2.66  10 2.79  18 2.82
                            36 2.83  22 2.86  28 2.87   8 2.94
  32  0.750  1.000  0.417-  56 2.64   8 2.64  20 2.64  28 2.64  60 2.64   4 2.64  23 2.86  51 2.87
                            27 2.87
  33  1.000  0.500  0.056-  37 2.64  41 2.64   5 2.64  45 2.64  25 2.64  61 2.64  46 2.82  22 2.83
                            10 2.91
  34  0.333  0.664  0.179-  10 2.62  62 2.62   6 2.63  46 2.64  58 2.64  38 2.67  47 2.79  39 2.82
                            45 2.89  53 2.90  41 2.91  43 3.03
  35  0.168  0.834  0.292-  11 2.64  47 2.64  59 2.66  63 2.66  39 2.67   7 2.67  38 2.79  46 2.81
                            42 2.81  40 2.82  16 2.90  44 2.90
  36  0.001  0.500  0.415-   8 2.64  44 2.64  28 2.64  48 2.64  40 2.65  64 2.65  39 2.80  31 2.83
                            59 2.90
  37  1.000  0.750  0.056-  33 2.64  41 2.64  61 2.64  57 2.64  13 2.64   1 2.64  46 2.83  42 2.83
                            50 2.83
  38  0.334  0.917  0.175-  30 2.64  58 2.64  42 2.64  46 2.64   2 2.67  34 2.67  35 2.79  17 2.83
                            41 2.83  13 2.83  11 2.86  47 2.86
  39  0.169  0.581  0.298-   3 2.62  43 2.62  47 2.64  31 2.64  35 2.67  59 2.67  36 2.80  44 2.80
                            34 2.82  10 2.82  46 2.92  48 3.16
  40  0.000  0.750  0.410-   4 2.65  16 2.65  60 2.65  44 2.65  64 2.65  36 2.65  63 2.82  59 2.82
                            35 2.82
  41  0.250  0.750  0.056-  45 2.64  33 2.64  37 2.64  53 2.64  17 2.64  13 2.64  46 2.82  38 2.83
                            34 2.91
  42  0.084  0.918  0.175-   2 2.64  38 2.64  14 2.64  54 2.64  46 2.66  50 2.66  63 2.81  35 2.81
                            13 2.82   1 2.82  37 2.83   7 2.92
  43  0.416  0.582  0.310-  15 2.62   3 2.62  55 2.62  39 2.62  51 2.66  47 2.66  56 2.71   6 2.79
                            48 2.99  52 2.99  62 3.03  34 3.03
  44  0.250  0.749  0.415-  56 2.64  36 2.64  20 2.64  48 2.64  40 2.65  16 2.65  39 2.80  47 2.83
                            35 2.90
  45  0.250  0.500  0.056-  41 2.64  53 2.64   5 2.64   9 2.64  49 2.64  33 2.64  10 2.89  34 2.89
                             6 3.14
  46  0.084  0.666  0.175-  38 2.64  22 2.64  34 2.64  10 2.64  42 2.66  50 2.66  35 2.81  59 2.81
                            41 2.82  33 2.82  37 2.83  39 2.92
  47  0.417  0.832  0.296-  51 2.62  39 2.64  35 2.64  23 2.64  43 2.66  11 2.66  34 2.79  58 2.82
                            44 2.83  38 2.86  20 2.87  56 2.94
  48  0.248  0.502  0.439-  65 1.86  36 2.64  44 2.64   8 2.66  56 2.66  12 2.70  52 2.70  43 2.99
                             3 2.99  39 3.16
  49  0.500  0.500  0.056-  61 2.64  53 2.64  57 2.64  21 2.64   9 2.64  45 2.64  26 2.89  62 2.89
                             6 3.14
  50  0.832  0.666  0.175-  54 2.64  22 2.64  62 2.64  26 2.64  46 2.66  42 2.66  63 2.81  59 2.81
                            61 2.82  57 2.82  37 2.83  55 2.92
  51  0.665  0.832  0.296-  47 2.62  55 2.64  63 2.64  23 2.64  43 2.66  27 2.66  62 2.79  58 2.82
                            60 2.83  54 2.86  32 2.87  56 2.94
  52  0.504  0.502  0.439-  66 1.84  65 1.86  64 2.64  60 2.64  24 2.66  56 2.66  12 2.70  48 2.70
                            43 2.99  15 2.99  55 3.16
  53  0.500  0.750  0.056-  49 2.64  57 2.64  45 2.64  41 2.64  29 2.64  17 2.64  58 2.85  34 2.90
                            62 2.90
  54  0.833  0.917  0.175-  18 2.64  58 2.64  50 2.64  42 2.64  62 2.67  14 2.67  63 2.79  29 2.83
                            57 2.83   1 2.83  27 2.86  51 2.86
  55  0.663  0.581  0.298-  43 2.62  15 2.62  51 2.64  19 2.64  59 2.67  63 2.67  64 2.80  60 2.80
                            26 2.82  62 2.82  50 2.92  52 3.16
  56  0.500  0.750  0.422-  60 2.64  44 2.64  32 2.64  20 2.64  52 2.66  48 2.66  43 2.71  51 2.94
                            47 2.94
  57  0.750  0.750  0.056-  61 2.64  49 2.64  53 2.64  37 2.64   1 2.64  29 2.64  50 2.82  54 2.83
                            62 2.91
  58  0.583  0.916  0.177-  38 2.64  54 2.64  34 2.64  62 2.64  30 2.66  18 2.66  47 2.82  51 2.82
                            23 2.84  53 2.85  17 2.86  29 2.86
  59  0.916  0.582  0.292-  31 2.64  19 2.64  63 2.66  35 2.66  55 2.67  39 2.67  22 2.79  46 2.81
                            50 2.81  40 2.82  64 2.90  36 2.90
  60  0.749  0.749  0.415-  56 2.64  64 2.64  32 2.64  52 2.64  40 2.65   4 2.65  55 2.80  51 2.83
                            63 2.90
[...]
  Hartree171997.74560171992.89388************    -4.34904    -1.78552     3.08897
  E(xc)   -2861.53362 -2861.59512 -2886.88397    -0.05645     0.00053     0.00131
  Local  ************************354917.33004    14.92972     4.89400    -8.61115
  n-local   564.94008   564.46213   314.80547    -0.43764    -0.48323     0.84977
  augment  3256.99746  3257.80377  3526.50994     0.73669     0.22892    -0.43873
  Kinetic  9173.45366  9175.95458  9746.75937     2.20033     0.51690    -0.97904
  Fock        0.00000     0.00000     0.00000     0.00000     0.00000     0.00000
  vdW       -53.13370   -53.11876   -28.35706     0.01761     0.01175    -0.01845
  Total      78.29688    77.87371    -0.17828    -0.34841     0.04306    -0.08279
  in kB      64.94812    64.59709    -0.14789    -0.28901     0.03572    -0.06868

 VOLUME and BASIS-vectors are now :
  energy-cutoff  :      550.00
  volume of cell :     1931.47
      direct lattice vectors                 reciprocal lattice vectors
    10.560000420  0.000000000  0.000000000     0.094696966  0.054673319  0.000000000
    -5.280000210  9.145228627  0.000000000     0.000000000  0.109346638  0.000000000
     0.000000000  0.000000000 20.000000000     0.000000000  0.000000000  0.050000000

  length of vectors
    10.560000420 10.560000420 20.000000000     0.109346638  0.109346638  0.050000000

 FORCES acting on ions
    electron-ion (+dipol)            ewald-force                    non-local-force                 convergence-correction
   0.118E+00 -.172E+02 0.231E+04   -.420E-01 0.172E+02 -.231E+04   -.576E-01 0.754E-01 -.243E+00   0.192E-03 0.482E-02 -.689E-02
   0.752E+01 -.233E+02 0.765E+03   -.763E+01 0.236E+02 -.765E+03   0.126E+00 -.283E+00 -.503E+00   0.220E-02 -.106E-01 -.793E-02
   -.527E+01 0.170E+01 -.908E+03   0.553E+01 -.171E+01 0.908E+03   -.274E+00 -.293E-01 0.145E+00   -.264E-01 0.160E-02 0.290E-01
   0.423E+01 0.392E+02 -.224E+04   -.408E+01 -.386E+02 0.224E+04   -.153E+00 -.524E+00 -.736E-01   -.275E-01 -.114E-01 -.947E-02
   -.152E+02 -.880E+01 0.230E+04   0.154E+02 0.891E+01 -.230E+04   -.693E-01 -.275E-01 -.209E-01   -.256E-02 0.917E-02 -.430E-02
   -.140E+01 0.814E+00 0.635E+03   0.138E+01 -.802E+00 -.634E+03   0.397E-01 -.242E-01 -.136E+01   -.118E-01 0.588E-02 -.245E-01
   0.448E+00 -.720E+01 -.767E+03   -.398E+00 0.781E+01 0.767E+03   -.419E-01 -.556E+00 0.333E-01   -.180E-01 -.201E-01 0.742E-02
   0.379E+02 0.193E+02 -.229E+04   -.374E+02 -.191E+02 0.229E+04   -.497E+00 -.127E+00 0.264E+00   -.163E-01 -.241E-01 -.368E-02
   -.570E+00 -.248E+02 0.228E+04   0.582E+00 0.249E+02 -.228E+04   0.607E-02 0.589E-02 0.116E+00   -.194E-02 0.604E-02 -.600E-02
   -.237E+02 0.552E+01 0.767E+03   0.240E+02 -.552E+01 -.766E+03   -.312E+00 -.230E-01 -.522E+00   -.103E-01 0.359E-02 0.291E-02
   0.125E+01 -.165E+01 -.743E+03   -.136E+01 0.205E+01 0.742E+03   0.106E+00 -.366E+00 0.237E+00   0.198E-01 -.262E-01 -.772E-02
   0.144E+02 0.644E+02 -.239E+04   -.151E+02 -.655E+02 0.239E+04   0.747E+00 0.107E+01 0.204E+00   -.259E-01 -.556E-02 -.352E-02
   -.226E+00 -.178E+02 0.231E+04   0.135E+00 0.179E+02 -.231E+04   0.547E-01 0.929E-01 -.271E+00   0.646E-02 -.186E-02 -.290E-02
   -.719E+01 -.230E+02 0.769E+03   0.738E+01 0.233E+02 -.768E+03   -.182E+00 -.281E+00 -.509E+00   -.869E-02 0.194E-02 0.141E-01
   0.329E+01 -.188E+01 -.928E+03   -.340E+01 0.195E+01 0.928E+03   0.163E+00 -.933E-01 0.397E+00   -.499E-02 0.280E-02 0.875E-02
   -.300E+01 0.358E+02 -.223E+04   0.279E+01 -.355E+02 0.223E+04   0.232E+00 -.207E+00 0.360E-01   -.517E-02 -.133E-01 0.938E-02
   -.164E+01 -.176E+01 0.231E+04   0.161E+01 0.176E+01 -.231E+04   0.103E-01 0.114E-01 -.281E+00   -.517E-03 -.398E-02 0.305E-03
   -.503E+01 -.307E+01 0.795E+03   0.519E+01 0.317E+01 -.795E+03   -.161E+00 -.108E+00 -.437E+00   -.882E-02 0.241E-02 0.220E-01
   0.206E+01 -.305E+00 -.742E+03   -.246E+01 0.201E+00 0.742E+03   0.370E+00 0.932E-01 0.236E+00   0.323E-01 -.462E-02 -.784E-02
   0.353E-01 0.485E+01 -.227E+04   -.781E-01 -.485E+01 0.227E+04   0.100E-01 0.213E-01 0.546E-01   0.426E-01 -.146E-01 0.535E-03
   0.150E+02 -.866E+01 0.230E+04   -.152E+02 0.879E+01 -.230E+04   0.641E-01 -.372E-01 0.668E-01   0.100E-02 -.121E-02 -.401E-02
   0.756E+00 0.756E+01 0.812E+03   -.760E+00 -.756E+01 -.812E+03   -.430E-02 -.142E-01 -.240E+00   0.620E-02 -.694E-02 0.112E-01
   -.219E+00 0.118E+00 -.744E+03   0.201E+00 -.108E+00 0.744E+03   0.327E-02 -.900E-03 0.436E+00   0.205E-01 -.125E-01 0.201E-01
   -.463E+02 0.267E+02 -.228E+04   0.463E+02 -.267E+02 0.228E+04   -.375E-01 0.199E-01 -.971E+00   0.804E-02 -.474E-02 0.596E-04
   0.724E+00 0.232E+01 0.231E+04   -.738E+00 -.229E+01 -.231E+04   -.493E-02 -.151E-01 -.281E+00   0.346E-02 0.191E-02 0.261E-03
   0.239E+02 0.514E+01 0.765E+03   -.242E+02 -.519E+01 -.765E+03   0.308E+00 0.316E-01 -.503E+00   0.972E-02 0.224E-02 -.799E-02
   -.155E+01 -.928E+00 -.738E+03   0.165E+01 0.112E+01 0.737E+03   -.868E-01 -.189E+00 0.431E+00   -.253E-01 -.430E-02 0.270E-01
   -.435E+01 -.251E+01 -.227E+04   0.433E+01 0.255E+01 0.227E+04   -.755E-02 -.183E-01 0.557E-01   0.334E-01 -.300E-01 0.825E-03
   0.173E+01 -.977E+00 0.231E+04   -.169E+01 0.953E+00 -.231E+04   -.634E-02 0.341E-02 -.284E+00   -.615E-02 0.386E-02 -.257E-02
   0.461E+01 -.267E+01 0.791E+03   -.483E+01 0.280E+01 -.791E+03   0.213E+00 -.123E+00 -.499E+00   0.144E-01 -.859E-02 0.157E-01
   -.124E+01 -.109E+01 -.736E+03   0.141E+01 0.101E+01 0.736E+03   -.193E+00 0.849E-01 0.396E+00   0.133E-02 -.138E-01 0.136E-01
   -.734E+00 0.301E+00 -.227E+04   0.805E+00 -.342E+00 0.227E+04   -.122E+00 0.718E-01 0.385E-01   0.393E-02 -.267E-02 -.976E-02
   -.149E+02 0.857E+01 0.231E+04   0.150E+02 -.849E+01 -.231E+04   0.364E-01 -.937E-01 -.292E+00   0.678E-02 -.141E-03 -.318E-03
   -.166E+02 0.178E+02 0.767E+03   0.168E+02 -.180E+02 -.766E+03   -.137E+00 0.279E+00 -.524E+00   -.900E-02 0.711E-02 0.295E-02
   0.218E+00 0.302E+00 -.692E+03   -.883E-01 -.222E+00 0.692E+03   -.122E+00 -.752E-01 0.503E+00   0.870E-02 0.186E-02 0.144E-01
   0.341E+02 -.163E+02 -.225E+04   -.336E+02 0.161E+02 0.225E+04   -.460E+00 0.130E+00 0.226E-01   0.946E-02 -.964E-03 0.736E-02
   -.505E-01 0.244E-01 0.232E+04   0.451E-01 -.216E-01 -.232E+04   0.121E-01 -.745E-02 -.418E+00   0.105E-01 -.538E-02 -.339E-02
   -.615E+01 -.441E+01 0.812E+03   0.614E+01 0.441E+01 -.812E+03   0.869E-02 0.102E-01 -.239E+00   0.796E-02 -.188E-02 0.113E-01
   -.242E+01 0.142E+01 -.768E+03   0.292E+01 -.170E+01 0.768E+03   -.469E+00 0.271E+00 -.295E-02   -.243E-02 0.105E-02 0.128E-01
   -.800E+00 0.495E+00 -.222E+04   0.781E+00 -.485E+00 0.222E+04   0.415E-02 -.255E-02 0.236E+00   0.580E-02 -.314E-02 0.197E-01
   -.149E+02 0.862E+01 0.231E+04   0.149E+02 -.873E+01 -.231E+04   0.991E-01 0.146E-01 -.291E+00   0.322E-02 -.527E-02 -.120E-03
   0.388E+00 -.130E+02 0.815E+03   -.394E+00 0.133E+02 -.815E+03   -.718E-02 -.248E+00 -.187E+00   0.681E-02 -.180E-02 0.132E-01
   -.410E+01 0.370E+01 -.909E+03   0.423E+01 -.393E+01 0.909E+03   -.110E+00 0.253E+00 0.147E+00   -.142E-01 0.222E-01 0.302E-01
   0.312E+02 -.213E+02 -.225E+04   -.308E+02 0.210E+02 0.225E+04   -.343E+00 0.332E+00 0.214E-01   0.645E-02 -.707E-02 0.698E-02
   -.216E+02 0.124E+02 0.228E+04   0.217E+02 -.125E+02 -.228E+04   0.208E-01 -.120E-01 0.103E+00   -.500E-02 0.261E-02 -.349E-02
   -.113E+02 0.651E+01 0.813E+03   0.115E+02 -.663E+01 -.813E+03   -.212E+00 0.123E+00 -.253E+00   0.639E-02 -.271E-02 -.196E-03
   0.310E+00 0.160E+01 -.736E+03   -.149E+00 -.172E+01 0.736E+03   -.170E+00 0.126E+00 0.397E+00   0.127E-01 0.636E-02 0.141E-01
   0.549E+02 -.316E+02 -.235E+04   -.548E+02 0.316E+02 0.235E+04   -.167E+00 0.961E-01 -.131E+01   -.620E-02 0.437E-02 -.211E-01
   0.212E+02 0.128E+02 0.228E+04   -.213E+02 -.129E+02 -.228E+04   -.217E-02 -.846E-02 0.116E+00   -.676E-02 -.196E-02 -.632E-02
   0.115E+02 0.617E+01 0.815E+03   -.117E+02 -.629E+01 -.815E+03   0.211E+00 0.130E+00 -.188E+00   0.547E-02 -.372E-02 0.127E-01
   0.188E-01 0.181E+01 -.738E+03   -.140E+00 -.199E+01 0.737E+03   0.122E+00 0.170E+00 0.430E+00   -.960E-02 0.246E-01 0.275E-01
   -.487E+02 -.444E+02 -.239E+04   0.493E+02 0.455E+02 0.239E+04   -.552E+00 -.120E+01 0.216E+00   -.817E-02 0.253E-01 -.338E-02
   0.459E-01 0.175E+02 0.230E+04   -.265E-01 -.178E+02 -.230E+04   -.108E-01 0.733E-01 -.203E-01   -.977E-02 -.208E-02 -.455E-02
   0.553E+01 -.317E+01 0.811E+03   -.550E+01 0.314E+01 -.811E+03   -.231E-01 0.129E-01 -.240E+00   -.726E-02 0.482E-02 0.227E-01
   0.643E+01 0.323E+01 -.767E+03   -.693E+01 -.357E+01 0.767E+03   0.461E+00 0.314E+00 0.334E-01   0.757E-02 0.252E-01 0.839E-02
   0.224E+01 -.424E+02 -.229E+04   -.212E+01 0.419E+02 0.229E+04   -.138E+00 0.487E+00 0.264E+00   0.127E-01 0.258E-01 -.335E-02
   0.149E+02 0.848E+01 0.231E+04   -.149E+02 -.856E+01 -.231E+04   -.944E-01 0.119E-01 -.243E+00   -.385E-02 -.177E-02 -.718E-02
   0.127E+00 0.592E+01 0.795E+03   -.138E+00 -.610E+01 -.795E+03   0.136E-01 0.193E+00 -.436E+00   -.675E-02 0.684E-02 0.225E-01
   -.164E+00 -.299E+00 -.692E+03   0.158E+00 0.147E+00 0.692E+03   0.495E-02 0.143E+00 0.504E+00   0.364E-02 -.835E-02 0.149E-01
   -.319E+02 -.233E+02 -.224E+04   0.315E+02 0.229E+02 0.224E+04   0.378E+00 0.398E+00 -.733E-01   -.444E-02 0.297E-01 -.889E-02
   0.153E+02 0.910E+01 0.231E+04   -.154E+02 -.903E+01 -.231E+04   -.531E-01 -.940E-01 -.273E+00   0.505E-02 -.484E-02 -.338E-02
   0.163E+02 0.177E+02 0.769E+03   -.165E+02 -.180E+02 -.768E+03   0.153E+00 0.298E+00 -.511E+00   -.633E-02 0.705E-02 0.141E-01
   -.170E+00 0.921E-01 -.695E+03   0.376E-01 -.170E-01 0.694E+03   0.146E+00 -.844E-01 0.421E+00   -.195E-01 0.123E-01 0.252E-01
   -.326E+02 -.153E+02 -.223E+04   0.323E+02 0.154E+02 0.223E+04   0.299E+00 -.954E-01 0.341E-01   0.867E-02 0.116E-01 0.937E-02
   0.211E+00 -.126E+00 -.291E+03   0.339E+00 -.192E+00 0.293E+03   -.530E+00 0.307E+00 -.180E+01   -.439E-03 0.303E-03 0.182E-03
   -.781E+01 0.446E+01 -.290E+03   0.765E+01 -.436E+01 0.292E+03   0.172E+00 -.107E+00 -.175E+01   -.937E-03 0.575E-03 0.169E-02
   0.120E+01 -.672E+00 0.914E+01   -.636E-12 -.152E-11 0.341E-12   -.122E+01 0.682E+00 -.946E+01   0.127E-01 -.636E-02 0.300E+00

 POSITION                                       TOTAL-FORCE (eV/Angst)
     10.55998      0.00001      1.11585         0.023566      0.101253     -0.139116
      2.63069      1.54662      3.59747         0.000158     -0.004515      0.006239
      0.02445      3.04923      6.20615         0.006374      0.001392      0.018278
      0.00051      0.01394      8.30773        -0.012650     -0.017204      0.009525
      9.23998      2.28632      1.11585         0.159095      0.092494      0.137187
      1.31815      3.81155      3.84589         0.007408     -0.005260     -0.006047
      1.32325      0.79713      5.96894        -0.003612      0.016166      0.008132
     -1.32544      2.28415      8.43958         0.019207      0.012044     -0.008173
      1.31998      2.28632      1.11585         0.015434      0.179356      0.197501
     -1.29739      3.81026      3.59363        -0.001291     -0.008160     -0.001919
      3.95706      0.77753      5.92952        -0.006744      0.009041      0.011189
      1.29326      2.24916      8.86972         0.017382     -0.013604      0.014709
      2.63998      0.00001      1.11585        -0.033759      0.118148     -0.147328
      0.01148      1.54617      3.59124         0.015775      0.001030     -0.004527
      2.63266      3.05218      6.22056         0.004071     -0.001949      0.012161
      2.62727      0.00787      8.28434         0.004364     -0.009363      0.004135
      5.27998      0.00001      1.11585        -0.022924      0.003969     -0.013308
      7.92580      1.52797      3.53831        -0.001315      0.005878     -0.005260
      5.26477      3.04247      5.92945        -0.011845      0.001798      0.011166
      5.28223     -0.00377      8.33505         0.002510      0.002199     -0.006161
      3.95998      2.28632      1.11585        -0.168078      0.096951      0.104900
      6.60010      3.80662      3.50081        -0.000221     -0.006217     -0.002753
      6.60198      0.76047      5.92846         0.002787     -0.001589      0.004635
      3.98484      2.27146      8.49661        -0.021168      0.011688      0.038355
      6.59998      2.28632      1.11585        -0.014687      0.017749     -0.013484
      3.93586      3.80724      3.59734         0.004298      0.001977      0.006795
      9.24723      0.77233      5.92080         0.003719      0.003135      0.003027
      6.60371      2.28533      8.33461         0.001183     -0.003766     -0.004937
      7.91998      0.00001      1.11585         0.034793     -0.019897     -0.032164
      5.27026      1.52966      3.54698        -0.005680      0.003899     -0.002780
      7.93686      3.04024      5.92030         0.000350      0.003535     -0.003217
      7.92562     -0.00392      8.33764        -0.038559      0.023307      0.003091
      7.91998      4.57263      1.11585         0.117969     -0.005149     -0.149128
      0.01145      6.07738      3.59394         0.005493      0.003994     -0.002239
     -2.62672      7.62257      5.83307         0.006655      0.000756     -0.001533
     -2.64492      4.57161      8.30309        -0.022908     -0.002516     -0.003821
      6.59998      6.85894      1.11585         0.016787     -0.009786     -0.240643
     -1.31663      8.38484      3.50092         0.004066      0.002302     -0.002626
     -1.28110      5.31187      5.98007         0.005572     -0.003232     -0.005246
     -3.96785      6.86284      8.19821        -0.008319      0.004230     -0.018916
     -1.32002      6.85894      1.11585         0.063825     -0.099466     -0.148777
     -3.95881      8.39901      3.48877        -0.005687     -0.000087     -0.002737
      1.33107      5.31245      6.20638         0.002576     -0.005607      0.018800
     -1.32212      6.86289      8.30378        -0.010422      0.021510     -0.004853
     -0.00002      4.57263      1.11585         0.151881     -0.087382      0.220031
     -2.62664      6.08895      3.49250         0.003650     -0.000872     -0.007677
      0.01510      7.60986      5.92080        -0.002851     -0.001855     -0.002471
     -0.05164      4.60179      8.73021        -0.036254      0.021734      0.009598
      2.63998      4.57263      1.11585        -0.147752     -0.102870      0.197533
      5.26672      6.08770      3.48882        -0.003438      0.005348     -0.002692
      2.63440      7.60902      5.92114        -0.000543     -0.004229      0.001817
      2.65825      4.61336      8.86923         0.019501     -0.007837      0.013912
      1.31998      6.85894      1.11585        -0.000659     -0.183987      0.137897
      3.95601      8.38533      3.50439         0.015250     -0.009668      0.004495
      3.93085      5.31376      5.96905        -0.015264     -0.004573      0.007419
      1.31864      6.86395      8.44007        -0.002132     -0.026037     -0.008599
      3.95998      6.85894      1.11585        -0.076144     -0.070820     -0.138887
      1.31951      8.37604      3.53844        -0.005172     -0.001746     -0.004432
      6.60477      5.32188      5.83298         0.003036     -0.006764     -0.000973
      3.94761      6.85035      8.30810         0.009341      0.021067      0.009826
      5.27998      4.57263      1.11585        -0.119211     -0.029570     -0.147811
      2.62660      6.07577      3.59142         0.007513     -0.013355     -0.005356
      5.27378      7.62417      5.83384         0.000928     -0.000736      0.003003
      5.26622      4.57866      8.28444         0.010046      0.001284      0.004101
      1.06520      3.95836      9.84493         0.015267     -0.008389      0.026597
      2.90357      2.89107      9.71545         0.017459     -0.011172      0.044539
    total drift:                               -0.006665      0.004070     -0.012944

  FREE ENERGIE OF THE ION-ELECTRON SYSTEM (eV)
  free  energy   TOTEN  =      -412.61919586 eV

  energy  without entropy=     -412.57871622  energy(sigma->0) =     -412.60570265

 d Force = 0.2113574E-02[ 0.935E-03, 0.329E-02]  d Energy = 0.2097654E-02 0.159E-04
 d Force = 0.3316535E+02[ 0.332E+02, 0.332E+02]  d Ewald  = 0.3316535E+02 0.958E-07

 Conjugate gradient step on ions:
 trial-energy change:   -0.002098  1 .order   -0.002114   -0.003293   -0.000935
  (g-gl).g = 0.258E-02      g.g   = 0.257E-02  gl.gl    = 0.467E-02
 g(Force)  = 0.257E-02   g(Stress)= 0.000E+00 ortho     = 0.294E-04
 gamma     =   0.55291
 trial     =   1.27131
 opt step  =   1.77524  (harmonic =   1.77524) maximal distance =0.01239988
 next E    =  -412.619397   (d E  =  -0.00230)

 reached required accuracy - stopping structural energy minimisation