 vasp.5.4.4.18Apr17-6-g9f103f2a35 (build Nov 30 2020 22:55:02) complex

 executed on             LinuxIFC date 2023.08.07  17:33:43

 INCAR:
 POTCAR:    PAW_PBE Pt 04Feb2005
 POTCAR:    PAW_PBE H 15Jun2001
 POTCAR:    PAW_PBE Pt 04Feb2005
   VRHFIN =Pt: s1d9

   TITEL  = PAW_PBE Pt 04Feb2005
   POMASS =  195.080; ZVAL   =   10.000    mass and valenz
   ENMAX  =  230.283; ENMIN  =  172.712 eV

 POTCAR:    PAW_PBE H 15Jun2001
   VRHFIN =H: ultrasoft test

   TITEL  = PAW_PBE H 15Jun2001
   POMASS =    1.000; ZVAL   =    1.000    mass and valenz
   ENMAX  =  250.000; ENMIN  =  200.000 eV

 Optimization of the real space projectors (new method)

 maximal supplied QI-value         = 14.36
 optimisation between [QCUT,QGAM] = [ 11.92, 23.98] = [ 39.79,161.09] Ry
 Optimized for a Real-space Cutoff    1.49 Angstroem

   l    n(q)    QCUT    max X(q) W(low)/X(q) W(high)/X(q)  e(spline)
   2     10    11.920    66.195    0.79E-04    0.18E-03    0.24E-06
   2     10    11.920    64.643    0.81E-04    0.19E-03    0.24E-06
   0     11    11.920    95.520    0.28E-04    0.54E-04    0.18E-06
   0     11    11.920    63.403    0.27E-04    0.52E-04    0.17E-06
   1     10    11.920    19.961    0.18E-04    0.11E-03    0.23E-06
   1     10    11.920    13.289    0.25E-04    0.87E-04    0.19E-06
 Optimization of the real space projectors (new method)

 maximal supplied QI-value         = 34.20
 optimisation between [QCUT,QGAM] = [ 11.97, 23.94] = [ 40.13,160.53] Ry
 Optimized for a Real-space Cutoff    1.18 Angstroem

   l    n(q)    QCUT    max X(q) W(low)/X(q) W(high)/X(q)  e(spline)
   0      8    11.971    19.460    0.15E-03    0.31E-03    0.25E-06
   0      8    11.971    12.209    0.13E-03    0.29E-03    0.25E-06
   1      8    11.971     4.655    0.22E-03    0.24E-03    0.21E-06
  PAW_PBE Pt 04Feb2005                  :
  PAW_PBE H 15Jun2001                   :

 POSCAR: Pt111\(1\1\1)\(2)
  positions in cartesian coordinates
 exchange correlation table for  LEXCH =        8
   RHO(1)=    0.500       N(1)  =     2000
   RHO(2)=  100.500       N(2)  =     4000

 ion  position               nearest neighbor table
   1  1.000  0.000  0.056-   5 2.64   9 2.64  13 2.64  29 2.64  57 2.64  37 2.64  42 2.87  14 2.87
                            54 2.87
   2  0.333  0.167  0.178-  30 2.64  26 2.64  38 2.64  42 2.64  14 2.64   6 2.64  15 2.84   7 2.84
                            11 2.84   9 2.87  21 2.87  13 2.87
   3  0.167  0.333  0.297-  39 2.64  27 2.64  43 2.64   7 2.64  15 2.64  31 2.64  14 2.84   6 2.84
                            10 2.84  12 2.87   8 2.87  48 2.87
   4  0.000  1.000  0.419-   8 2.64  12 2.64  16 2.64  32 2.64  40 2.64  60 2.64  27 2.87   7 2.87
                            63 2.87
   5  1.000  0.250  0.056-   1 2.64  45 2.64  33 2.64   9 2.64  29 2.64  25 2.64  14 2.87  10 2.87
                            18 2.87
   6  0.333  0.417  0.178-  26 2.64  62 2.64  10 2.64  34 2.64  14 2.64   2 2.64  43 2.84   3 2.84
                            15 2.84  45 2.87  49 2.87   9 2.87
   7  0.167  0.083  0.297-  27 2.64  15 2.64   3 2.64  63 2.64  11 2.64  35 2.64  42 2.84   2 2.84
                            14 2.84  16 2.87   4 2.87  12 2.87
   8  0.000  0.250  0.419-   4 2.64  48 2.64  36 2.64  12 2.64  32 2.64  28 2.64  31 2.87   3 2.87
                            27 2.87
   9  0.250  0.250  0.056-  21 2.64  13 2.64   1 2.64  49 2.64  45 2.64   5 2.64   2 2.87  14 2.87
                             6 2.87
  10  0.083  0.417  0.178-  34 2.64   6 2.64  46 2.64  14 2.64  18 2.64  22 2.64  39 2.84  31 2.84
                             3 2.84  33 2.87  45 2.87   5 2.87
  11  0.417  0.083  0.297-  19 2.64  15 2.64   7 2.64  47 2.64  35 2.64  23 2.64  30 2.84  38 2.84
                             2 2.84  20 2.87  16 2.87  24 2.87
  12  0.250  0.250  0.419-  24 2.64  16 2.64   4 2.64  52 2.64  48 2.64   8 2.64   3 2.87  15 2.87
                             7 2.87
  13  0.250  0.000  0.056-  21 2.64   9 2.64  17 2.64   1 2.64  37 2.64  41 2.64  38 2.87   2 2.87
                            42 2.87
  14  0.083  0.167  0.178-  42 2.64  54 2.64   6 2.64   2 2.64  10 2.64  18 2.64  27 2.84   3 2.84
                             7 2.84   5 2.87   1 2.87   9 2.87
  15  0.417  0.333  0.297-  43 2.64   7 2.64   3 2.64  11 2.64  55 2.64  19 2.64  26 2.84   2 2.84
                             6 2.84  24 2.87  12 2.87  52 2.87
  16  0.250  1.000  0.419-  24 2.64  12 2.64  20 2.64   4 2.64  40 2.64  44 2.64   7 2.87  11 2.87
                            35 2.87
  17  0.500  0.000  0.056-  29 2.64  25 2.64  13 2.64  21 2.64  41 2.64  53 2.64  58 2.87  30 2.87
                            38 2.87
  18  0.833  0.167  0.178-  54 2.64  58 2.64  22 2.64  10 2.64  30 2.64  14 2.64  23 2.84  31 2.84
                            27 2.84  25 2.87  29 2.87   5 2.87
  19  0.667  0.333  0.297-  55 2.64  31 2.64  59 2.64  11 2.64  23 2.64  15 2.64  22 2.84  30 2.84
                            26 2.84  28 2.87  64 2.87  24 2.87
  20  0.500  1.000  0.419-  32 2.64  28 2.64  16 2.64  24 2.64  44 2.64  56 2.64  11 2.87  23 2.87
                            47 2.87
  21  0.500  0.250  0.056-  25 2.64  61 2.64   9 2.64  13 2.64  49 2.64  17 2.64  30 2.87   2 2.87
                            26 2.87
  22  0.833  0.417  0.178-  50 2.64  26 2.64  30 2.64  18 2.64  46 2.64  10 2.64  19 2.84  59 2.84
                            31 2.84  61 2.87  25 2.87  33 2.87
  23  0.667  0.083  0.297-  27 2.64  31 2.64  19 2.64  51 2.64  47 2.64  11 2.64  18 2.84  58 2.84
                            30 2.84  32 2.87  28 2.87  20 2.87
  24  0.500  0.250  0.419-  28 2.64  64 2.64  12 2.64  16 2.64  52 2.64  20 2.64  15 2.87  11 2.87
                            19 2.87
  25  0.750  0.250  0.056-  17 2.64  21 2.64  29 2.64  61 2.64  33 2.64   5 2.64  18 2.87  22 2.87
                            30 2.87
  26  0.583  0.417  0.178-   6 2.64   2 2.64  22 2.64  30 2.64  62 2.64  50 2.64  55 2.84  15 2.84
                            19 2.84  49 2.87  61 2.87  21 2.87
  27  0.917  0.083  0.297-  23 2.64   7 2.64   3 2.64  51 2.64  31 2.64  63 2.64  54 2.84  14 2.84
                            18 2.84   4 2.87   8 2.87  32 2.87
  28  0.750  0.250  0.419-  20 2.64  24 2.64  32 2.64  64 2.64  36 2.64   8 2.64  19 2.87  23 2.87
                            31 2.87
  29  0.750  0.000  0.056-  17 2.64  25 2.64   5 2.64  53 2.64   1 2.64  57 2.64  54 2.87  18 2.87
                            58 2.87
  30  0.583  0.167  0.178-   2 2.64  38 2.64  58 2.64  26 2.64  22 2.64  18 2.64  11 2.84  19 2.84
                            23 2.84  21 2.87  17 2.87  25 2.87
  31  0.917  0.333  0.297-  59 2.64  19 2.64  23 2.64  39 2.64   3 2.64  27 2.64  18 2.84  10 2.84
                            22 2.84   8 2.87  36 2.87  28 2.87
  32  0.750  1.000  0.419-  20 2.64  28 2.64   8 2.64  56 2.64   4 2.64  60 2.64  23 2.87  27 2.87
                            51 2.87
  33  1.000  0.500  0.056-  37 2.64  41 2.64   5 2.64  45 2.64  25 2.64  61 2.64  10 2.87  46 2.87
                            22 2.87
  34  0.333  0.667  0.178-  62 2.64  10 2.64  58 2.64  46 2.64   6 2.64  38 2.64  47 2.84  39 2.84
                            43 2.84  41 2.87  45 2.87  53 2.87
  35  0.167  0.833  0.297-  63 2.64  59 2.64   7 2.64  11 2.64  47 2.64  39 2.64  46 2.84  38 2.84
                            42 2.84  44 2.87  40 2.87  16 2.87
  36  0.000  0.500  0.419-  40 2.64  44 2.64   8 2.64  48 2.64  28 2.64  64 2.64  59 2.87  39 2.87
                            31 2.87
  37  1.000  0.750  0.056-  33 2.64  41 2.64  61 2.64  57 2.64  13 2.64   1 2.64  46 2.87  50 2.87
                            42 2.87
  38  0.333  0.917  0.178-  58 2.64  30 2.64   2 2.64  42 2.64  34 2.64  46 2.64  11 2.84  35 2.84
                            47 2.84  13 2.87  17 2.87  41 2.87
  39  0.167  0.583  0.297-   3 2.64  31 2.64  59 2.64  43 2.64  47 2.64  35 2.64  10 2.84  34 2.84
                            46 2.84  48 2.87  36 2.87  44 2.87
  40  0.000  0.750  0.419-  36 2.64  44 2.64  64 2.64  60 2.64  16 2.64   4 2.64  63 2.87  35 2.87
                            59 2.87
  41  0.250  0.750  0.056-  45 2.64  33 2.64  37 2.64  53 2.64  17 2.64  13 2.64  34 2.87  46 2.87
                            38 2.87
  42  0.083  0.917  0.178-  14 2.64   2 2.64  38 2.64  46 2.64  50 2.64  54 2.64   7 2.84  63 2.84
                            35 2.84   1 2.87  13 2.87  37 2.87
  43  0.417  0.583  0.297-  15 2.64   3 2.64  39 2.64  51 2.64  47 2.64  55 2.64  62 2.84   6 2.84
                            34 2.84  52 2.87  56 2.87  48 2.87
  44  0.250  0.750  0.419-  48 2.64  36 2.64  40 2.64  56 2.64  20 2.64  16 2.64  35 2.87  39 2.87
                            47 2.87
  45  0.250  0.500  0.056-  41 2.64  53 2.64   5 2.64   9 2.64  49 2.64  33 2.64   6 2.87  10 2.87
                            34 2.87
  46  0.083  0.667  0.178-  34 2.64  50 2.64  10 2.64  42 2.64  22 2.64  38 2.64  59 2.84  35 2.84
                            39 2.84  37 2.87  33 2.87  41 2.87
  47  0.417  0.833  0.297-  39 2.64  43 2.64  11 2.64  23 2.64  35 2.64  51 2.64  58 2.84  34 2.84
                            38 2.84  56 2.87  44 2.87  20 2.87
  48  0.250  0.500  0.419-  44 2.64  56 2.64   8 2.64  12 2.64  52 2.64  36 2.64  39 2.87   3 2.87
                            43 2.87
  49  0.500  0.500  0.056-  61 2.64  53 2.64  57 2.64  21 2.64   9 2.64  45 2.64  26 2.87   6 2.87
                            62 2.87
  50  0.833  0.667  0.178-  22 2.64  46 2.64  26 2.64  42 2.64  54 2.64  62 2.64  55 2.84  63 2.84
                            59 2.84  57 2.87  61 2.87  37 2.87
  51  0.667  0.833  0.297-  63 2.64  27 2.64  43 2.64  55 2.64  23 2.64  47 2.64  54 2.84  62 2.84
                            58 2.84  60 2.87  32 2.87  56 2.87
  52  0.500  0.500  0.419-  64 2.64  56 2.64  60 2.64  24 2.64  12 2.64  48 2.64  43 2.87  15 2.87
                            55 2.87
  53  0.500  0.750  0.056-  49 2.64  57 2.64  45 2.64  41 2.64  29 2.64  17 2.64  62 2.87  34 2.87
                            58 2.87
  54  0.833  0.917  0.178-  18 2.64  14 2.64  50 2.64  58 2.64  42 2.64  62 2.64  51 2.84  27 2.84
                            63 2.84  29 2.87   1 2.87  57 2.87
  55  0.667  0.583  0.297-  19 2.64  59 2.64  63 2.64  15 2.64  51 2.64  43 2.64  50 2.84  26 2.84
                            62 2.84  64 2.87  60 2.87  52 2.87
  56  0.500  0.750  0.419-  52 2.64  60 2.64  48 2.64  44 2.64  32 2.64  20 2.64  47 2.87  43 2.87
                            51 2.87
  57  0.750  0.750  0.056-  61 2.64  49 2.64  53 2.64  37 2.64   1 2.64  29 2.64  50 2.87  62 2.87
                            54 2.87
  58  0.583  0.917  0.178-  38 2.64  30 2.64  18 2.64  34 2.64  62 2.64  54 2.64  47 2.84  23 2.84
                            51 2.84  17 2.87  29 2.87  53 2.87
  59  0.917  0.583  0.297-  31 2.64  55 2.64  19 2.64  39 2.64  35 2.64  63 2.64  22 2.84  46 2.84
                            50 2.84  36 2.87  40 2.87  64 2.87
  60  0.750  0.750  0.419-  64 2.64  52 2.64  56 2.64  40 2.64   4 2.64  32 2.64  51 2.87  55 2.87
                            63 2.87
  61  0.750  0.500  0.056-  49 2.64  57 2.64  21 2.64  25 2.64  37 2.64  33 2.64  22 2.87  26 2.87
                            50 2.87
[...]
  Hartree173304.18275173305.80642************    -0.64773    -0.34666     0.13867
  E(xc)   -2862.23156 -2862.09031 -2887.72998    -0.08000    -0.03272     0.01414
  Local  ************************357781.46517     4.40867     1.98775    -0.82475
  n-local   571.81167   571.17861   297.70764     0.32387     0.14479    -0.06841
  augment  3253.30024  3253.28978  3535.67134     0.04033     0.01117    -0.00144
  Kinetic  9174.27109  9169.80313  9765.34379     2.60984     1.02100    -0.45129
  Fock        0.00000     0.00000     0.00000     0.00000     0.00000     0.00000
  vdW       -53.66318   -53.64444   -29.14338    -0.01153    -0.00616    -0.00122
  Total      84.19180    84.21493    -1.06928     0.00224     0.00735    -0.00858
  in kB      69.83801    69.85720    -0.88698     0.00186     0.00609    -0.00712

 VOLUME and BASIS-vectors are now :
  energy-cutoff  :      550.00
  volume of cell :     1931.47
      direct lattice vectors                 reciprocal lattice vectors
    10.560000420  0.000000000  0.000000000     0.094696966  0.054673319  0.000000000
    -5.280000210  9.145228627  0.000000000     0.000000000  0.109346638  0.000000000
     0.000000000  0.000000000 20.000000000     0.000000000  0.000000000  0.050000000

  length of vectors
    10.560000420 10.560000420 20.000000000     0.109346638  0.109346638  0.050000000

 FORCES acting on ions
    electron-ion (+dipol)            ewald-force                    non-local-force                 convergence-correction
   0.572E-01 0.202E+00 0.231E+04   -.605E-01 -.188E+00 -.231E+04   -.270E-03 -.727E-02 -.127E+00   0.619E-02 -.104E-01 -.906E-02
   -.513E-01 -.272E+00 0.784E+03   0.624E-01 0.260E+00 -.783E+03   -.256E-02 0.119E-01 -.373E+00   -.741E-02 0.647E-02 0.126E-01
   0.102E+01 0.310E+00 -.769E+03   -.104E+01 -.301E+00 0.769E+03   0.199E-01 -.398E-02 0.368E+00   0.199E-02 -.430E-02 -.308E-01
   0.221E+01 0.398E+01 -.230E+04   -.220E+01 -.397E+01 0.230E+04   -.227E-02 -.111E-01 0.124E+00   -.129E-01 -.354E-02 0.128E-01
   0.165E+00 0.151E-01 0.231E+04   -.165E+00 -.135E-01 -.231E+04   -.581E-02 0.146E-02 -.147E+00   0.373E-02 0.114E-02 -.105E-01
   -.222E+00 0.164E+00 0.784E+03   0.212E+00 -.163E+00 -.784E+03   0.688E-02 -.455E-02 -.356E+00   0.568E-02 0.128E-02 0.203E-01
   0.497E+00 0.132E+01 -.770E+03   -.486E+00 -.135E+01 0.770E+03   -.399E-03 0.270E-01 0.390E+00   -.109E-01 -.273E-02 -.276E-01
   0.577E+01 0.206E+01 -.230E+04   -.576E+01 -.206E+01 0.230E+04   -.560E-02 0.256E-03 0.139E+00   -.862E-02 -.104E-01 0.140E-01
   0.298E-01 0.106E+00 0.231E+04   -.294E-01 -.102E+00 -.231E+04   -.167E-02 -.842E-02 -.195E+00   0.153E-02 -.129E-02 -.870E-02
   0.381E+00 0.273E-02 0.783E+03   -.390E+00 -.188E-02 -.783E+03   0.537E-02 -.418E-02 -.359E+00   0.480E-02 0.123E-02 0.112E-01
   -.103E+01 0.113E+01 -.770E+03   0.102E+01 -.114E+01 0.770E+03   -.264E-02 0.109E-01 0.367E+00   0.114E-01 -.746E-02 -.196E-01
   0.427E+01 0.730E+01 -.229E+04   -.430E+01 -.735E+01 0.229E+04   0.269E-01 0.506E-01 0.344E+00   -.318E-02 0.671E-03 0.290E-01
   -.256E-02 0.232E+00 0.231E+04   0.742E-02 -.220E+00 -.231E+04   -.359E-03 -.458E-02 -.124E+00   -.605E-02 -.101E-01 -.125E-01
   0.252E+00 0.524E-01 0.784E+03   -.257E+00 -.538E-01 -.783E+03   0.352E-02 0.603E-02 -.365E+00   0.109E-02 -.234E-02 0.189E-01
   -.226E+00 0.167E+00 -.768E+03   0.240E+00 -.174E+00 0.768E+03   -.110E-01 0.359E-02 0.335E+00   -.855E-02 0.589E-02 -.390E-01
   -.956E+00 0.629E+01 -.230E+04   0.954E+00 -.627E+01 0.230E+04   0.108E-02 -.184E-01 0.124E+00   0.272E-02 -.789E-02 0.135E-01
   -.620E-01 0.733E-01 0.231E+04   0.648E-01 -.660E-01 -.231E+04   -.623E-03 -.313E-02 -.139E+00   -.477E-02 -.664E-02 -.125E-01
   0.970E-01 0.115E+00 0.783E+03   -.103E+00 -.103E+00 -.783E+03   0.637E-03 -.398E-02 -.353E+00   0.390E-02 -.902E-02 0.250E-01
   -.150E+01 0.310E+00 -.770E+03   0.151E+01 -.301E+00 0.770E+03   -.973E-02 -.209E-02 0.364E+00   0.662E-02 -.735E-02 -.211E-01
   -.183E+01 0.135E+01 -.230E+04   0.181E+01 -.134E+01 0.230E+04   0.223E-02 -.439E-02 0.123E+00   0.153E-01 -.444E-02 0.139E-01
   -.115E+00 0.543E-01 0.231E+04   0.116E+00 -.549E-01 -.231E+04   0.517E-02 -.295E-02 -.159E+00   -.474E-02 0.275E-02 -.116E-01
   -.296E+00 -.119E+00 0.783E+03   0.300E+00 0.118E+00 -.783E+03   -.212E-02 -.535E-02 -.342E+00   0.118E-03 0.701E-02 0.105E-01
   -.298E+00 0.155E+00 -.772E+03   0.288E+00 -.143E+00 0.772E+03   -.105E-02 0.112E-02 0.356E+00   0.106E-01 -.120E-01 -.152E-01
   -.772E+01 0.435E+01 -.230E+04   0.773E+01 -.436E+01 0.230E+04   -.116E-01 0.856E-02 0.165E+00   0.316E-02 -.369E-02 0.209E-01
   -.804E-01 0.176E-01 0.231E+04   0.796E-01 -.212E-01 -.231E+04   0.220E-02 0.233E-02 -.138E+00   -.509E-03 0.518E-02 -.135E-01
   0.144E+00 0.152E+00 0.784E+03   -.128E+00 -.160E+00 -.783E+03   -.106E-01 -.383E-02 -.371E+00   -.110E-01 0.710E-02 0.117E-01
   0.836E+00 0.580E+00 -.771E+03   -.830E+00 -.574E+00 0.771E+03   0.371E-02 0.359E-02 0.356E+00   -.112E-01 -.104E-01 -.200E-01
   -.215E+01 0.819E+00 -.230E+04   0.213E+01 -.804E+00 0.230E+04   0.502E-02 0.321E-03 0.125E+00   0.842E-02 -.147E-01 0.162E-01
   0.691E-02 0.841E-02 0.231E+04   -.108E-01 -.204E-02 -.231E+04   0.516E-03 -.481E-03 -.156E+00   0.464E-02 -.700E-02 -.876E-02
   -.300E+00 0.163E+00 0.783E+03   0.299E+00 -.159E+00 -.783E+03   -.609E-03 -.291E-03 -.352E+00   0.198E-02 -.409E-02 0.186E-01
   0.703E+00 0.208E+00 -.771E+03   -.708E+00 -.194E+00 0.771E+03   0.204E-02 -.237E-02 0.349E+00   0.951E-04 -.134E-01 -.177E-01
   0.563E+00 -.428E+00 -.231E+04   -.557E+00 0.427E+00 0.231E+04   -.390E-03 0.630E-03 0.136E+00   -.511E-02 -.266E-03 0.671E-02
   0.515E-01 -.529E-01 0.231E+04   -.438E-01 0.350E-01 -.231E+04   -.215E-02 -.706E-03 -.117E+00   -.352E-02 0.129E-01 -.139E-01
   0.234E+00 -.358E+00 0.783E+03   -.244E+00 0.360E+00 -.783E+03   0.571E-02 -.336E-02 -.359E+00   0.512E-02 0.102E-02 0.114E-01
   0.122E+00 0.646E+00 -.772E+03   -.120E+00 -.651E+00 0.771E+03   -.159E-02 0.581E-02 0.331E+00   -.926E-03 -.322E-02 -.204E-01
   0.218E+01 -.979E+00 -.230E+04   -.217E+01 0.977E+00 0.230E+04   -.843E-02 0.489E-02 0.119E+00   -.141E-02 -.878E-03 0.180E-01
   0.280E-02 -.608E-02 0.231E+04   -.694E-02 0.917E-02 -.231E+04   -.116E-02 0.119E-02 -.122E+00   -.250E-04 -.697E-05 -.111E-01
   -.866E-01 0.377E+00 0.783E+03   0.841E-01 -.377E+00 -.783E+03   0.454E-02 0.375E-02 -.342E+00   -.104E-02 -.670E-02 0.119E-01
   0.117E+01 -.672E+00 -.771E+03   -.119E+01 0.676E+00 0.771E+03   0.129E-01 -.732E-02 0.356E+00   0.146E-02 0.521E-02 -.193E-01
   -.627E+00 0.424E+00 -.231E+04   0.626E+00 -.423E+00 0.231E+04   0.240E-02 -.211E-02 0.119E+00   -.296E-03 0.141E-02 0.152E-01
   0.626E-01 -.217E-01 0.231E+04   -.470E-01 0.212E-01 -.231E+04   -.797E-03 0.267E-02 -.118E+00   -.909E-02 -.114E-02 -.129E-01
   0.123E+00 0.803E+00 0.783E+03   -.114E+00 -.799E+00 -.783E+03   -.227E-02 -.111E-02 -.342E+00   -.694E-02 -.927E-02 0.678E-02
   0.289E+00 -.995E+00 -.769E+03   -.306E+00 0.100E+01 0.769E+03   0.124E-01 -.163E-01 0.374E+00   0.522E-02 0.616E-02 -.308E-01
   0.201E+01 -.131E+01 -.230E+04   -.201E+01 0.130E+01 0.230E+04   -.768E-02 0.392E-02 0.114E+00   0.346E-02 0.516E-02 0.163E-01
   0.218E+00 -.135E+00 0.231E+04   -.219E+00 0.132E+00 -.231E+04   -.710E-02 0.429E-02 -.145E+00   -.303E-03 0.443E-02 -.930E-02
   0.324E+00 -.214E+00 0.784E+03   -.322E+00 0.209E+00 -.783E+03   0.237E-03 0.490E-03 -.323E+00   -.526E-02 0.632E-02 0.769E-02
   0.210E+00 -.721E+00 -.771E+03   -.224E+00 0.719E+00 0.771E+03   0.222E-02 0.118E-03 0.347E+00   0.119E-01 0.613E-02 -.177E-01
   0.804E+01 -.442E+01 -.230E+04   -.805E+01 0.442E+01 0.230E+04   -.195E-02 -.110E-02 0.148E+00   -.110E-03 0.346E-02 0.158E-01
   -.893E-01 -.947E-01 0.231E+04   0.864E-01 0.886E-01 -.231E+04   0.591E-02 0.586E-02 -.191E+00   0.203E-02 0.353E-02 -.715E-02
   -.580E+00 -.475E+00 0.783E+03   0.586E+00 0.465E+00 -.783E+03   -.890E-03 0.195E-02 -.340E+00   -.398E-03 0.107E-01 0.689E-02
   -.113E+00 -.106E+01 -.771E+03   0.115E+00 0.106E+01 0.771E+03   -.280E-03 -.364E-02 0.355E+00   -.114E-02 0.111E-01 -.210E-01
   -.445E+01 -.713E+01 -.229E+04   0.447E+01 0.718E+01 0.229E+04   -.187E-01 -.521E-01 0.318E+00   -.349E-02 0.484E-02 0.273E-01
   0.635E-01 -.150E+00 0.231E+04   -.643E-01 0.149E+00 -.231E+04   -.377E-02 0.441E-02 -.145E+00   0.649E-03 -.360E-02 -.804E-02
   0.143E-01 0.189E-01 0.783E+03   -.872E-02 -.174E-01 -.783E+03   -.680E-02 0.383E-02 -.348E+00   0.532E-03 -.529E-02 0.203E-01
   -.968E+00 -.108E+01 -.770E+03   0.997E+00 0.108E+01 0.770E+03   -.215E-01 -.123E-01 0.384E+00   -.713E-02 0.133E-01 -.293E-01
   0.111E+01 -.614E+01 -.230E+04   -.111E+01 0.613E+01 0.230E+04   -.358E-02 0.490E-02 0.124E+00   0.277E-02 0.136E-01 0.985E-02
   -.127E+00 -.137E+00 0.231E+04   0.116E+00 0.135E+00 -.231E+04   0.561E-02 0.451E-02 -.127E+00   0.845E-02 -.239E-02 -.754E-02
   -.425E-01 -.148E+00 0.783E+03   0.323E-01 0.153E+00 -.783E+03   0.351E-02 0.201E-02 -.353E+00   0.698E-02 -.499E-02 0.255E-01
   -.485E+00 -.419E+00 -.772E+03   0.491E+00 0.415E+00 0.771E+03   -.555E-02 -.216E-02 0.331E+00   0.464E-03 0.775E-02 -.214E-01
   -.248E+01 -.393E+01 -.230E+04   0.248E+01 0.391E+01 0.230E+04   0.845E-02 0.687E-02 0.122E+00   -.596E-02 0.127E-01 0.123E-01
   -.183E+00 -.108E+00 0.231E+04   0.178E+00 0.955E-01 -.231E+04   0.384E-02 0.210E-02 -.126E+00   0.181E-02 0.125E-01 -.120E-01
   0.703E-02 -.271E+00 0.784E+03   -.588E-02 0.274E+00 -.783E+03   -.343E-02 -.538E-02 -.366E+00   0.102E-02 0.188E-02 0.179E-01
   -.222E+00 0.119E+00 -.771E+03   0.232E+00 -.124E+00 0.771E+03   -.505E-03 0.156E-02 0.334E+00   -.965E-02 0.395E-02 -.234E-01
   -.597E+01 -.225E+01 -.230E+04   0.596E+01 0.224E+01 0.230E+04   0.162E-01 0.830E-02 0.137E+00   0.524E-02 0.394E-02 0.156E-01
   0.837E+01 -.183E+02 -.201E+03   -.104E+02 0.228E+02 0.200E+03   0.205E+01 -.452E+01 0.792E+00   -.833E-04 0.186E-03 0.320E-03
   -.836E+01 0.183E+02 -.200E+03   0.104E+02 -.228E+02 0.201E+03   -.205E+01 0.452E+01 -.803E+00   0.277E-04 -.182E-03 0.399E-03
   -.180E-02 -.980E-03 -.155E+00   -.444E-13 -.242E-12 0.321E-11   0.318E-02 0.958E-03 0.248E+00   -.663E-03 -.588E-04 -.479E-01

 POSITION                                       TOTAL-FORCE (eV/Angst)
     10.55998      0.00001      1.11585         0.002590     -0.003630     -0.001256
      2.64001      1.52376      3.54829         0.001014      0.006970      0.003130
     -0.00054      3.04850      5.94847         0.004588      0.001415     -0.005875
     -0.00010     -0.00000      8.37988        -0.000266     -0.002154      0.002830
      9.23998      2.28632      1.11585        -0.002291      0.004228     -0.000326
      1.31965      3.81071      3.54751         0.002544     -0.002158      0.000412
      1.32021      0.76185      5.94808        -0.000435      0.000259     -0.004523
     -1.32026      2.28613      8.37994        -0.002886     -0.001092      0.006118
      1.31998      2.28632      1.11585         0.000195     -0.006078     -0.002835
     -1.31979      3.81038      3.54889         0.000550     -0.002132      0.006376
      3.95965      0.76210      5.94772         0.001853     -0.002120     -0.007554
      1.31952      2.28595      8.37833         0.000272      0.000458     -0.012219
      2.63998      0.00001      1.11585        -0.001529     -0.002795     -0.005864
      0.00007      1.52411      3.54813        -0.000002      0.002378      0.001957
      2.64057      3.04816      5.94922        -0.005406      0.002887     -0.003462
      2.64016      0.00009      8.38035         0.000613     -0.001276      0.009186
      5.27998      0.00001      1.11585        -0.002657     -0.002562     -0.004088
      7.91999      1.52422      3.54841        -0.001070     -0.001018      0.003365
      5.27987      3.04869      5.94783         0.002939     -0.000407     -0.007173
      5.28004     -0.00001      8.37975         0.000053     -0.001950      0.000823
      3.95998      2.28632      1.11585         0.001191     -0.000757      0.001144
      6.59985      3.81027      3.54847         0.002118      0.000640      0.002766
      6.60007      0.76206      5.94841        -0.000280      0.000213     -0.002166
      3.96089      2.28583      8.37963         0.001048     -0.001150      0.002497
      6.59998      2.28632      1.11585         0.000851      0.003942     -0.003752
      3.96029      3.81067      3.54836        -0.005335     -0.004321      0.003797
      9.24019      0.76214      5.94814        -0.000956     -0.000885     -0.004191
      6.60002      2.28626      8.37968         0.001800      0.000622      0.000439
      7.91998      0.00001      1.11585         0.001242     -0.001112     -0.006620
      5.27992      1.52426      3.54839         0.000693     -0.000026      0.002541
      7.92017      3.04856      5.94814        -0.003131     -0.001462     -0.002982
      2.64001      9.14520      8.38005        -0.000063     -0.000257      0.005954
      7.91998      4.57263      1.11585         0.002031     -0.005576      0.002954
      0.00023      6.09665      3.54893         0.001431      0.000123      0.006026
     -2.63994      7.62106      5.94777        -0.000429     -0.001937     -0.007117
     -2.63979      4.57262      8.37973        -0.001191      0.001336      0.000236
      6.59998      6.85894      1.11585        -0.005310      0.004258      0.012977
     -1.31994      8.38343      3.54849         0.001093     -0.003084      0.002576
     -1.31993      5.33468      5.94756        -0.001978      0.001505     -0.008222
     -3.95996      6.85891      8.37973         0.000652     -0.000272     -0.000809
     -1.32002      6.85894      1.11585         0.005611      0.001000      0.004213
     -3.95997      8.38403      3.54880        -0.000611     -0.005433      0.004556
      1.31972      5.33524      5.94830         0.000864     -0.004015     -0.006195
     -1.31992      6.85876      8.37973        -0.001446      0.000338     -0.000241
     -0.00002      4.57263      1.11585        -0.008276      0.004951     -0.006181
     -2.63979      6.09665      3.54806        -0.003063      0.001698     -0.002427
      0.00002      7.62083      5.94811        -0.000201      0.003832     -0.002609
     -0.00023      4.57274      8.37997         0.000035      0.000750      0.005900
      2.63998      4.57263      1.11585         0.004914      0.003225     -0.003293
      5.27933      6.09636      3.54866         0.004155      0.002710      0.003081
      2.64004      7.62084      5.94815         0.000179      0.001965     -0.003516
      2.64013      4.57322      8.37843        -0.000889      0.000236     -0.011059
      1.31998      6.85894      1.11585        -0.003973     -0.000439     -0.000573
      3.95993      8.38317      3.54860        -0.000685      0.000059      0.004147
      3.96029      5.33473      5.94805         0.000120      0.000752     -0.005505
      1.32001      6.85926      8.38019        -0.000670      0.002683      0.008407
      3.95998      6.85894      1.11585         0.003045     -0.000125      0.000171
      1.31998      8.38311      3.54844         0.000272      0.001429      0.003370
      6.60001      5.33467      5.94779         0.001485      0.001885     -0.007417
      3.95998      6.85899      8.37983         0.001473      0.001499      0.001986
      5.27998      4.57263      1.11585         0.001414      0.001619     -0.004542
      2.64003      6.09675      3.54826        -0.001269     -0.000885      0.001823
      5.27995      7.62105      5.94787         0.000362      0.000009     -0.005137
      5.27992      4.57242      8.38014         0.001707      0.000360      0.006724
      1.84074      3.76129     11.34119        -0.003747      0.004731      0.007399
      2.14772      3.08474     11.46103         0.003045     -0.005855      0.019845
    total drift:                                0.000714     -0.000080      0.045218

  FREE ENERGIE OF THE ION-ELECTRON SYSTEM (eV)
  free  energy   TOTEN  =      -411.85187209 eV

  energy  without entropy=     -411.65217364  energy(sigma->0) =     -411.78530594

 d Force = 0.5901177E-03[-0.119E-03, 0.130E-02]  d Energy = 0.5852350E-03 0.488E-05
 d Force = 0.1311940E+02[ 0.131E+02, 0.131E+02]  d Ewald  = 0.1311940E+02-0.220E-05

 Conjugate gradient step on ions:
 trial-energy change:   -0.000585  1 .order   -0.000590   -0.001299    0.000119
  (g-gl).g = 0.168E-02      g.g   = 0.151E-02  gl.gl    = 0.555E-02
 g(Force)  = 0.151E-02   g(Stress)= 0.000E+00 ortho     =-0.172E-03
 gamma     =   0.30251
 trial     =   0.89315
 opt step  =   0.81842  (harmonic =   0.81842) maximal distance =0.00197713
 next E    =  -411.851882   (d E  =  -0.00060)

 reached required accuracy - stopping structural energy minimisation