 vasp.5.4.4.18Apr17-6-g9f103f2a35 (build Nov 30 2020 22:55:02) complex

 executed on             LinuxIFC date 2023.07.30  12:14:39

 INCAR:
 POTCAR:    PAW_PBE Pt 04Feb2005
 POTCAR:    PAW_PBE Cu 22Jun2005
 POTCAR:    PAW_PBE Ni 02Aug2007
 POTCAR:    PAW_PBE Fe 06Sep2000
 POTCAR:    PAW_PBE Co 02Aug2007
 POTCAR:    PAW_PBE H 15Jun2001
 POTCAR:    PAW_PBE Pt 04Feb2005
   VRHFIN =Pt: s1d9

   TITEL  = PAW_PBE Pt 04Feb2005
   POMASS =  195.080; ZVAL   =   10.000    mass and valenz
   ENMAX  =  230.283; ENMIN  =  172.712 eV

 POTCAR:    PAW_PBE Cu 22Jun2005
   VRHFIN =Cu: d10 p1

   TITEL  = PAW_PBE Cu 22Jun2005
   POMASS =   63.546; ZVAL   =   11.000    mass and valenz
   ENMAX  =  295.446; ENMIN  =  221.585 eV

 POTCAR:    PAW_PBE Ni 02Aug2007
   VRHFIN =Ni:

   TITEL  = PAW_PBE Ni 02Aug2007
   POMASS =   58.690; ZVAL   =   10.000    mass and valenz
   ENMAX  =  269.532; ENMIN  =  202.149 eV

 POTCAR:    PAW_PBE Fe 06Sep2000
   VRHFIN =Fe:  d7 s1

   TITEL  = PAW_PBE Fe 06Sep2000
   POMASS =   55.847; ZVAL   =    8.000    mass and valenz
   ENMAX  =  267.882; ENMIN  =  200.911 eV

 POTCAR:    PAW_PBE Co 02Aug2007
   VRHFIN =Co: d8 s1

   TITEL  = PAW_PBE Co 02Aug2007
   POMASS =   58.933; ZVAL   =    9.000    mass and valenz
   ENMAX  =  267.968; ENMIN  =  200.976 eV

 POTCAR:    PAW_PBE H 15Jun2001
   VRHFIN =H: ultrasoft test

   TITEL  = PAW_PBE H 15Jun2001
   POMASS =    1.000; ZVAL   =    1.000    mass and valenz
   ENMAX  =  250.000; ENMIN  =  200.000 eV

 Optimization of the real space projectors (new method)

 maximal supplied QI-value         = 14.36
 optimisation between [QCUT,QGAM] = [ 11.92, 23.98] = [ 39.79,161.09] Ry
 Optimized for a Real-space Cutoff    1.49 Angstroem

   l    n(q)    QCUT    max X(q) W(low)/X(q) W(high)/X(q)  e(spline)
   2     10    11.920    66.195    0.79E-04    0.18E-03    0.24E-06
   2     10    11.920    64.643    0.81E-04    0.19E-03    0.24E-06
   0     11    11.920    95.520    0.28E-04    0.54E-04    0.18E-06
   0     11    11.920    63.403    0.27E-04    0.52E-04    0.17E-06
   1     10    11.920    19.961    0.18E-04    0.11E-03    0.23E-06
   1     10    11.920    13.289    0.25E-04    0.87E-04    0.19E-06
 Optimization of the real space projectors (new method)

[...]

   l    n(q)    QCUT    max X(q) W(low)/X(q) W(high)/X(q)  e(spline)
   2      9    11.864    65.824    0.22E-03    0.53E-03    0.26E-06
   2      9    11.864    61.429    0.22E-03    0.53E-03    0.26E-06
   0      9    11.864    56.174    0.21E-03    0.32E-04    0.15E-06
   0      9    11.864    31.263    0.19E-03    0.30E-04    0.14E-06
   1      9    11.864    19.828    0.63E-04    0.30E-03    0.16E-06
   1      9    11.864    15.139    0.49E-04    0.25E-03    0.13E-06
 Optimization of the real space projectors (new method)

 maximal supplied QI-value         = 34.20
 optimisation between [QCUT,QGAM] = [ 11.97, 23.94] = [ 40.13,160.53] Ry
 Optimized for a Real-space Cutoff    1.18 Angstroem

   l    n(q)    QCUT    max X(q) W(low)/X(q) W(high)/X(q)  e(spline)
   0      8    11.971    19.460    0.15E-03    0.31E-03    0.25E-06
   0      8    11.971    12.209    0.13E-03    0.29E-03    0.25E-06
   1      8    11.971     4.655    0.22E-03    0.24E-03    0.21E-06
  PAW_PBE Pt 04Feb2005                  :
  PAW_PBE Cu 22Jun2005                  :
  PAW_PBE Ni 02Aug2007                  :
  PAW_PBE Fe 06Sep2000                  :
  PAW_PBE Co 02Aug2007                  :
  PAW_PBE H 15Jun2001                   :

 POSCAR: 10.56
  positions in direct lattice
  velocities in cartesian coordinates
 exchange correlation table for  LEXCH =        8
   RHO(1)=    0.500       N(1)  =     2000
   RHO(2)=  100.500       N(2)  =     4000

 ion  position               nearest neighbor table
   1  0.789  0.876  0.317-  49 2.57  59 2.58  19 2.62  61 2.65  60 2.66  33 2.67  29 2.67  28 2.71
                             2 2.72   4 2.82  12 2.84  11 2.90
   2  0.044  0.880  0.316-  79 2.55  77 2.57  60 2.61  30 2.64  22 2.65  28 2.66  52 2.68   1 2.72
                            33 2.73   6 2.76   4 2.82  16 2.87
   3  0.288  0.375  0.321-  39 2.60  64 2.61  33 2.61  68 2.65  31 2.66  19 2.67  43 2.68  30 2.72
                             5 2.76  18 2.78  25 2.81  13 2.91
   4  0.879  0.957  0.424-  16 2.63  12 2.65   6 2.65  17 2.65  11 2.65   9 2.65  60 2.70   2 2.82
                             1 2.82
   5  0.127  0.457  0.427-  13 2.62   7 2.63  10 2.63  12 2.63  16 2.65  25 2.65   3 2.76  39 2.79
                            33 2.79
   6  0.128  0.958  0.422-   8 2.61  10 2.63  14 2.64   4 2.65   9 2.65  16 2.65   2 2.76  52 2.82
                            22 2.88
   7  0.878  0.457  0.423-  82 1.89   9 2.63   5 2.63  15 2.63  10 2.63  12 2.63  27 2.66  39 2.70
                            29 2.73  75 2.77
   8  0.376  0.956  0.417-  81 1.92   6 2.61  14 2.62  43 2.62  27 2.63  10 2.65  52 2.65  61 2.66
                            11 2.67  13 2.69
   9  0.877  0.209  0.422-  17 2.62   7 2.63  15 2.64  10 2.64   6 2.65   4 2.65  60 2.65  75 2.72
                            22 2.83
  10  0.127  0.208  0.423-   6 2.63  13 2.63   7 2.63   5 2.63   9 2.64   8 2.65  43 2.73  39 2.73
                            22 2.82
  11  0.628  0.957  0.430-  81 1.69  12 2.64  27 2.64   4 2.65  17 2.67  13 2.67   8 2.67   1 2.90
                            19 2.93  61 2.94
  12  0.877  0.707  0.425-  82 1.80   5 2.63   7 2.63  16 2.64  11 2.64   4 2.65  27 2.65  33 2.75
                            29 2.82   1 2.84
  13  0.375  0.209  0.434-   5 2.62  10 2.63  25 2.66  11 2.67   8 2.69  17 2.69   3 2.91  43 2.97
                            19 3.00
  14  0.378  0.708  0.427-  27 2.62   8 2.62  25 2.63   6 2.64  15 2.64  16 2.65  44 2.76  30 2.79
                            52 2.88
  15  0.628  0.459  0.424-  27 2.62   7 2.63  17 2.64   9 2.64  14 2.64  25 2.65  44 2.76  18 2.78
                            75 2.80
  16  0.127  0.708  0.425-   4 2.63  25 2.63  12 2.64   5 2.65  14 2.65   6 2.65  33 2.77  30 2.78
                             2 2.87
  17  0.629  0.209  0.424-   9 2.62  15 2.64   4 2.65  25 2.66  11 2.67  60 2.68  13 2.69  18 2.76
                            19 2.88
  18  0.554  0.370  0.318-  67 2.53  75 2.55  60 2.57  68 2.60  44 2.68  26 2.68  19 2.73  30 2.75
                            17 2.76   3 2.78  15 2.78  25 2.91
  19  0.538  0.120  0.316-  59 2.55  80 2.55  68 2.57  43 2.59  61 2.61   1 2.62   3 2.67  18 2.73
                            60 2.74  17 2.88  11 2.93  13 3.00
  20  0.547  0.122  0.038-  57 2.54  37 2.59  48 2.60  62 2.60  47 2.60  34 2.65  45 2.68  63 2.71
                            56 2.75
  21  0.124  0.462  0.127-  36 2.55  47 2.57  40 2.58  58 2.61  42 2.61  64 2.63  31 2.66  69 2.66
                            50 2.67  74 2.69  70 2.69  57 2.69
  22  0.041  0.134  0.313-  65 2.47  75 2.54  55 2.54  77 2.57  39 2.59  43 2.59  60 2.65   2 2.65
                            52 2.74  10 2.82   9 2.83   6 2.88
  23  0.032  0.135  0.034-  70 2.57  62 2.59  40 2.59  41 2.60  76 2.63  45 2.70  24 2.70  35 2.71
                            53 2.86
  24  0.127  0.955  0.132-  79 2.52  55 2.55  53 2.61  35 2.62  77 2.62  58 2.62  73 2.64  70 2.65
                            38 2.67  66 2.68  23 2.70  41 2.74
  25  0.376  0.460  0.427-  16 2.63  14 2.63  15 2.65   5 2.65  17 2.66  13 2.66   3 2.81  30 2.84
                            18 2.91
  26  0.458  0.546  0.220-  73 2.50  74 2.51  51 2.53  79 2.60  64 2.61  30 2.65  68 2.66  18 2.68
                            32 2.69  44 2.70  78 2.71  67 2.74
  27  0.626  0.708  0.424-  82 1.88  14 2.62  15 2.62   8 2.63  11 2.64  12 2.65   7 2.66  44 2.70
                            29 2.75  61 2.78
  28  0.964  0.793  0.218-  66 2.54  50 2.56  58 2.58  77 2.63  42 2.64  64 2.65   2 2.66  79 2.68
                            59 2.70   1 2.71  49 2.75  33 2.75
  29  0.790  0.622  0.319-  42 2.59  44 2.60  32 2.61  39 2.61  75 2.64  61 2.65  33 2.66  49 2.66
                             1 2.67   7 2.73  27 2.75  12 2.82
  30  0.294  0.630  0.319-  79 2.57  64 2.60  44 2.61  52 2.62   2 2.64  26 2.65  33 2.70   3 2.72
                            18 2.75  16 2.78  14 2.79  25 2.84
  31  0.211  0.284  0.223-  57 2.55  70 2.55  65 2.59  43 2.61  55 2.61  80 2.64  21 2.66  39 2.66
                             3 2.66  68 2.67  42 2.71  64 2.72
  32  0.717  0.537  0.221-  69 2.51  54 2.56  51 2.57  65 2.60  29 2.61  42 2.61  67 2.64  75 2.64
                            49 2.68  26 2.69  44 2.74  78 2.78
  33  0.042  0.623  0.321-  42 2.57  39 2.59   3 2.61  64 2.63  29 2.66   1 2.67  30 2.70   2 2.73
                            12 2.75  28 2.75  16 2.77   5 2.79
  34  0.797  0.870  0.037-  50 2.48  66 2.50  36 2.54  48 2.61  35 2.62  63 2.64  71 2.65  20 2.65
                            62 2.72
  35  0.044  0.872  0.035-  58 2.56  36 2.57  66 2.61  24 2.62  34 2.62  72 2.70  23 2.71  62 2.72
                            53 2.74
  36  0.039  0.631  0.035-  58 2.54  34 2.54  21 2.55  35 2.57  50 2.59  40 2.68  71 2.72  72 2.76
                            47 2.78
  37  0.626  0.214  0.133-  68 2.52  59 2.52  67 2.52  41 2.56  51 2.57  56 2.58  66 2.59  20 2.59
                            74 2.60  62 2.60  57 2.64  48 2.76
  38  0.376  0.961  0.131-  80 2.47  53 2.51  55 2.53  78 2.53  63 2.53  45 2.55  54 2.58  48 2.61
                            57 2.62  24 2.67  70 2.69  73 2.69
  39  0.041  0.378  0.321-  33 2.59  22 2.59   3 2.60  42 2.60  29 2.61  75 2.63  31 2.66  65 2.66
                             7 2.70  43 2.70  10 2.73   5 2.79
  40  0.040  0.377  0.033-  69 2.55  21 2.58  23 2.59  76 2.61  70 2.61  45 2.66  71 2.67  36 2.68
                            47 2.81
  41  0.868  0.215  0.131-  67 2.47  65 2.53  76 2.53  77 2.53  37 2.56  51 2.56  62 2.57  69 2.59
                            23 2.60  70 2.61  66 2.63  24 2.74
  42  0.960  0.545  0.225-  33 2.57  29 2.59  39 2.60  50 2.61  32 2.61  21 2.61  28 2.64  64 2.65
                            69 2.68  65 2.69  49 2.70  31 2.71
  43  0.293  0.119  0.319-  52 2.54  55 2.57  22 2.59  19 2.59  31 2.61  61 2.61   8 2.62  80 2.64
                             3 2.68  39 2.70  10 2.73  13 2.97
  44  0.541  0.630  0.321-  61 2.56  52 2.56  29 2.60  30 2.61  78 2.64  18 2.68  27 2.70  26 2.70
                            75 2.73  32 2.74  15 2.76  14 2.76
  45  0.292  0.126  0.037-  38 2.55  57 2.57  70 2.59  40 2.66  53 2.66  20 2.68  23 2.70  47 2.70
                            63 2.74
  46  0.545  0.626  0.042-  73 2.43  51 2.44  54 2.47  71 2.53  53 2.54  76 2.54  63 2.55  72 2.56
                            56 2.56
  47  0.307  0.374  0.039-  74 2.45  57 2.52  56 2.54  21 2.57  20 2.60  72 2.62  45 2.70  36 2.78
                            40 2.81
  48  0.628  0.952  0.133-  49 2.43  80 2.48  59 2.50  63 2.52  50 2.54  54 2.54  20 2.60  34 2.61
                            66 2.61  38 2.61  57 2.66  37 2.76
  49  0.701  0.798  0.223-  48 2.43  54 2.51  80 2.51  61 2.55  78 2.56   1 2.57  50 2.57  59 2.60
                            29 2.66  32 2.68  42 2.70  28 2.75
  50  0.866  0.710  0.128-  71 2.42  34 2.48  48 2.54  28 2.56  49 2.57  54 2.58  36 2.59  42 2.61
[...]

 FORCES acting on ions
    electron-ion (+dipol)            ewald-force                    non-local-force                 convergence-correction
   -.306E+02 -.678E+02 -.145E+04   0.296E+02 0.687E+02 0.144E+04   0.107E+01 -.854E+00 0.213E+01   -.102E-01 -.213E-02 0.908E-01
   0.558E+02 -.178E+02 -.141E+04   -.555E+02 0.185E+02 0.141E+04   -.271E+00 -.716E+00 0.268E+01   -.156E-01 0.740E-02 0.744E-01
   -.112E+03 0.451E+01 -.143E+04   0.112E+03 -.445E+01 0.143E+04   0.265E+00 -.698E-01 0.302E+01   0.480E-02 0.941E-03 0.119E+00
   -.486E+01 -.226E+02 -.286E+04   0.465E+01 0.228E+02 0.286E+04   0.224E+00 -.123E+00 0.114E+01   -.140E-01 0.102E-01 0.124E-01
   -.258E+02 -.615E+01 -.294E+04   0.261E+02 0.586E+01 0.294E+04   -.259E+00 0.341E+00 0.977E+00   0.542E-02 0.454E-02 0.234E-01
   0.477E+02 -.858E+01 -.287E+04   -.474E+02 0.840E+01 0.287E+04   -.312E+00 0.147E+00 0.942E+00   0.905E-02 0.586E-02 0.905E-04
   0.304E+02 0.180E+02 -.291E+04   -.304E+02 -.190E+02 0.291E+04   0.257E-01 0.931E+00 0.694E+00   -.199E-01 0.635E-02 -.190E-01
   0.114E+01 0.180E+01 -.289E+04   -.173E+01 -.206E+01 0.289E+04   0.586E+00 0.306E+00 0.101E+01   -.756E-02 0.143E-03 -.144E-03
   0.259E+02 0.310E+02 -.287E+04   -.262E+02 -.308E+02 0.286E+04   0.272E+00 -.251E+00 0.162E+01   -.145E-01 0.201E-01 0.229E-02
   0.283E+02 0.199E+02 -.292E+04   -.283E+02 -.199E+02 0.292E+04   0.573E-01 -.839E-01 0.755E+00   -.311E-02 0.348E-02 -.539E-02
   -.505E+02 -.106E+02 -.286E+04   0.499E+02 0.110E+02 0.286E+04   0.702E+00 -.381E+00 -.112E+01   0.978E-02 -.549E-02 0.863E-02
   -.544E+01 -.493E+02 -.290E+04   0.640E+01 0.493E+02 0.290E+04   -.965E+00 -.436E-01 0.172E+00   -.559E-02 -.170E-02 0.198E-01
   -.509E+02 -.190E+00 -.290E+04   0.508E+02 0.126E+01 0.290E+04   0.139E+00 -.111E+01 0.104E+01   0.309E-01 0.140E-01 0.228E-01
   0.277E+02 0.621E+01 -.293E+04   -.278E+02 -.622E+01 0.293E+04   0.160E+00 0.440E-01 0.905E+00   0.158E-01 -.147E-01 0.206E-01
   0.137E+02 0.363E+02 -.289E+04   -.139E+02 -.365E+02 0.289E+04   0.179E+00 0.257E+00 0.106E+01   0.920E-02 -.386E-02 -.124E-01
   -.913E+01 -.279E+02 -.290E+04   0.922E+01 0.278E+02 0.290E+04   -.104E+00 0.104E+00 0.759E+00   -.137E-01 -.138E-01 0.108E-01
   0.814E+00 0.116E+02 -.285E+04   -.308E+00 -.115E+02 0.285E+04   -.535E+00 -.705E-01 0.119E+01   -.671E-02 0.696E-02 0.234E-01
   0.478E+02 0.478E+02 -.141E+04   -.461E+02 -.489E+02 0.140E+04   -.175E+01 0.110E+01 0.279E+01   0.270E-01 0.200E-02 0.118E+00
   -.898E+02 -.307E+02 -.141E+04   0.895E+02 0.296E+02 0.141E+04   0.296E+00 0.117E+01 0.358E+01   0.118E-01 -.646E-02 0.103E+00
   -.226E+02 -.236E+02 0.300E+04   0.227E+02 0.239E+02 -.300E+04   -.203E-01 -.277E+00 -.198E+01   -.456E-02 0.128E-02 0.499E-02
   -.724E+02 0.224E+02 0.148E+04   0.729E+02 -.220E+02 -.148E+04   -.591E+00 -.335E+00 -.710E-01   0.247E-01 -.518E-02 0.754E-01
   0.986E+02 0.252E+02 -.139E+04   -.990E+02 -.241E+02 0.138E+04   0.573E+00 -.112E+01 0.327E+01   -.288E-01 0.250E-01 0.873E-01
   0.348E+02 0.501E+02 0.303E+04   -.354E+02 -.489E+02 -.303E+04   0.659E+00 -.120E+01 -.219E+01   0.138E-01 -.365E-01 -.375E-02
   0.902E+02 0.307E+01 0.147E+04   -.903E+02 -.433E+01 -.147E+04   0.774E-01 0.125E+01 -.116E+01   -.547E-02 0.109E-01 0.771E-01
   -.165E+02 0.214E+02 -.289E+04   0.164E+02 -.213E+02 0.289E+04   0.144E+00 -.105E+00 0.658E+00   0.162E-02 -.276E-01 0.670E-02
   0.521E+02 0.610E+02 0.292E+02   -.532E+02 -.610E+02 -.310E+02   0.108E+01 -.560E-01 0.166E+01   -.168E-02 -.114E-01 0.132E+00
   -.182E+02 -.163E+02 -.288E+04   0.170E+02 0.163E+02 0.288E+04   0.126E+01 0.449E-01 0.135E+01   0.315E-02 -.267E-01 0.299E-02
   -.614E+02 -.398E+02 0.118E+03   0.618E+02 0.398E+02 -.120E+03   -.396E+00 -.970E-01 0.169E+01   -.241E-02 0.986E-02 0.117E+00
   0.147E+02 -.437E+02 -.150E+04   -.151E+02 0.438E+02 0.150E+04   0.444E+00 -.103E-01 0.250E+01   -.238E-01 -.206E-01 0.105E+00
   0.377E+02 0.559E+02 -.144E+04   -.378E+02 -.551E+02 0.144E+04   0.517E-01 -.781E+00 0.274E+01   0.129E-01 -.218E-01 0.969E-01
   -.788E+02 -.462E+02 0.814E+02   0.789E+02 0.454E+02 -.825E+02   -.179E+00 0.672E+00 0.110E+01   0.139E-01 -.141E-02 0.113E+00
   0.451E+02 0.489E+02 0.159E+02   -.443E+02 -.499E+02 -.169E+02   -.735E+00 0.111E+01 0.936E+00   -.673E-02 -.184E-02 0.169E+00
   -.682E+02 -.751E+02 -.162E+04   0.680E+02 0.748E+02 0.162E+04   0.244E+00 0.442E+00 0.108E+01   -.162E-01 -.896E-02 0.112E+00
   0.104E+02 -.906E+02 0.332E+04   -.107E+02 0.906E+02 -.332E+04   0.297E+00 -.187E-01 -.237E+01   0.122E-01 0.305E-01 -.310E-03
   -.329E+02 -.508E+02 0.329E+04   0.323E+02 0.504E+02 -.328E+04   0.745E+00 0.470E+00 -.295E+01   -.948E-02 0.208E-01 -.701E-03
   -.545E+02 0.438E+02 0.331E+04   0.547E+02 -.435E+02 -.331E+04   -.154E+00 -.344E+00 -.355E+01   0.106E-01 -.767E-03 -.437E-02
   0.520E+02 0.294E+02 0.158E+04   -.519E+02 -.294E+02 -.158E+04   -.689E-01 -.147E-01 -.138E+01   -.149E-01 -.168E-01 0.873E-01
   0.212E+02 -.661E+02 0.168E+04   -.206E+02 0.659E+02 -.168E+04   -.634E+00 0.150E+00 -.922E+00   0.293E-02 0.159E-01 0.855E-01
   0.154E+02 0.170E+02 -.162E+04   -.159E+02 -.173E+02 0.162E+04   0.516E+00 0.189E+00 0.123E+01   -.333E-01 0.227E-01 0.111E+00
   -.320E+02 0.375E+01 0.335E+04   0.303E+02 -.405E+01 -.335E+04   0.157E+01 0.356E+00 -.327E+01   0.592E-01 -.248E-01 -.156E-01
   0.343E+01 0.817E+02 0.163E+04   -.372E+01 -.813E+02 -.163E+04   0.353E+00 -.403E+00 -.113E+01   -.166E-01 -.540E-01 0.112E+00
   -.558E+02 0.151E+02 0.413E+02   0.556E+02 -.148E+02 -.416E+02   0.141E+00 -.362E+00 0.211E-01   0.593E-02 0.918E-02 0.147E+00
   -.721E+02 -.349E+02 -.164E+04   0.719E+02 0.340E+02 0.163E+04   0.187E+00 0.100E+01 0.174E+01   0.644E-02 -.508E-02 0.972E-01
   0.834E+01 0.709E+02 -.162E+04   -.817E+01 -.699E+02 0.162E+04   -.206E+00 -.110E+01 0.923E+00   0.177E-01 -.334E-01 0.116E+00
   -.374E+02 -.233E+01 0.331E+04   0.379E+02 0.185E+01 -.330E+04   -.435E+00 0.464E+00 -.278E+01   0.111E-01 -.161E-02 -.230E-02
   0.204E+02 0.214E+02 0.304E+04   -.203E+02 -.213E+02 -.304E+04   -.103E+00 -.108E+00 -.619E+00   -.221E-01 0.332E-01 -.345E-02
   -.196E+02 0.589E+01 0.297E+04   0.213E+02 -.597E+01 -.297E+04   -.167E+01 0.108E+00 -.215E+01   -.891E-02 -.227E-01 0.428E-02
   -.664E+02 -.115E+03 0.148E+04   0.664E+02 0.114E+03 -.148E+04   -.984E-01 0.513E+00 -.922E+00   0.101E-02 0.211E-01 0.822E-01
   -.666E+02 -.167E+02 -.552E+02   0.659E+02 0.173E+02 0.545E+02   0.741E+00 -.749E+00 0.657E+00   -.191E-02 0.101E-01 0.130E+00
   -.110E+03 -.698E+00 0.148E+04   0.110E+03 0.107E+01 -.148E+04   0.334E-01 -.433E+00 -.458E+00   0.243E-01 0.229E-01 0.933E-01
   0.420E+02 0.326E+02 0.148E+04   -.419E+02 -.321E+02 -.148E+04   -.412E-01 -.374E+00 0.443E-01   -.363E-01 -.140E-01 0.118E+00
   0.673E+02 0.209E+02 -.147E+04   -.669E+02 -.210E+02 0.147E+04   -.520E+00 0.137E+00 0.171E+01   0.107E-01 -.553E-02 0.933E-01
   0.455E+02 -.351E+02 0.303E+04   -.448E+02 0.338E+02 -.303E+04   -.820E+00 0.133E+01 -.201E+01   0.118E-02 0.371E-01 0.170E-02
   0.169E+02 0.353E+02 0.146E+04   -.165E+02 -.352E+02 -.146E+04   -.433E+00 -.146E+00 -.402E+00   -.518E-02 0.377E-01 0.111E+00
   0.774E+02 -.478E+02 0.446E+02   -.772E+02 0.475E+02 -.446E+02   -.168E+00 0.308E+00 -.185E+00   0.304E-02 -.274E-02 0.108E+00
   0.875E+01 0.564E+02 0.244E+04   -.840E+01 -.559E+02 -.244E+04   -.339E+00 -.546E+00 -.281E+01   -.315E-01 -.305E-01 0.353E-02
   -.195E+02 -.495E+02 0.116E+04   0.196E+02 0.499E+02 -.116E+04   -.842E-01 -.323E+00 -.764E+00   0.679E-02 -.275E-02 0.550E-01
   0.220E+02 -.152E+02 0.118E+04   -.216E+02 0.149E+02 -.118E+04   -.418E+00 0.353E+00 -.737E+00   -.120E-01 0.259E-02 0.689E-01
   -.511E+02 -.415E+02 -.204E+02   0.512E+02 0.419E+02 0.200E+02   -.181E+00 -.505E+00 0.290E+00   0.250E-02 0.995E-03 0.899E-01
   0.433E+02 0.144E+02 -.118E+04   -.431E+02 -.142E+02 0.118E+04   -.228E+00 -.194E+00 0.119E+01   0.419E-02 0.212E-01 0.715E-01
[...]
   -.410E+02 0.283E+02 0.135E+04   0.409E+02 -.282E+02 -.135E+04   0.463E-02 -.120E-01 -.113E+00   0.250E-01 -.532E-02 0.104E+00
   -.240E+02 -.730E+01 0.134E+04   0.243E+02 0.788E+01 -.134E+04   -.252E+00 -.570E+00 -.998E+00   0.161E-01 -.218E-01 0.644E-01
   -.679E+01 -.114E+01 0.272E+04   0.558E+01 0.158E+01 -.272E+04   0.113E+01 -.445E+00 -.238E+01   0.279E-01 0.325E-01 -.515E-02
   0.348E+02 0.197E+02 0.270E+04   -.339E+02 -.200E+02 -.269E+04   -.859E+00 0.320E+00 -.277E+01   -.180E-01 -.238E-02 0.454E-02
   0.710E+02 0.224E+01 0.132E+04   -.712E+02 -.244E+01 -.132E+04   0.267E+00 0.241E+00 -.113E-01   -.430E-02 0.165E-01 0.871E-01
   0.640E+02 0.291E+02 0.130E+04   -.642E+02 -.290E+02 -.130E+04   0.225E+00 -.125E+00 -.101E+00   -.154E-01 -.220E-01 0.839E-01
   0.524E+02 0.260E+02 -.129E+04   -.527E+02 -.264E+02 0.129E+04   0.280E+00 0.486E+00 0.121E+01   -.935E-02 0.124E-01 0.102E+00
   0.498E+02 0.556E+02 0.274E+04   -.504E+02 -.550E+02 -.274E+04   0.665E+00 -.574E+00 -.185E+01   -.705E-02 -.335E-01 -.356E-02
   0.488E+02 0.309E+02 0.393E+01   -.494E+02 -.304E+02 -.407E+01   0.620E+00 -.581E+00 -.330E-01   -.699E-02 0.142E-02 0.104E+00
   0.200E+02 0.732E+02 -.142E+02   -.199E+02 -.723E+02 0.144E+02   -.580E-01 -.102E+01 -.431E+00   0.106E-01 0.637E-02 0.112E+00
   0.993E+02 0.441E+02 0.352E+02   -.987E+02 -.440E+02 -.355E+02   -.566E+00 -.212E+00 0.123E+00   -.439E-02 0.541E-02 0.102E+00
   -.767E+02 -.104E+03 0.129E+02   0.772E+02 0.104E+03 -.132E+02   -.448E+00 0.351E+00 0.134E+00   0.387E-02 -.403E-02 0.983E-01
   0.529E+01 -.109E+01 -.349E+03   -.597E+01 0.117E+01 0.351E+03   0.677E+00 -.358E-01 -.196E+01   0.230E-02 0.334E-04 -.365E-02
   0.332E+01 -.812E+00 -.347E+03   -.357E+01 0.840E+00 0.349E+03   0.277E+00 -.382E-01 -.169E+01   0.302E-05 -.853E-04 -.512E-02
   -.272E+01 0.758E-01 -.347E+01   -.230E-12 0.357E-12 -.824E-11   0.276E+01 -.408E-01 -.140E+01   -.190E-01 -.315E-01 0.486E+01

 POSITION                                       TOTAL-FORCE (eV/Angst)
     12.95929      8.00619      6.97486         0.003254      0.009073      0.002363
      5.11429      8.05822      6.94918         0.004978      0.005738      0.007524
      5.03387      3.44996      7.03442         0.012702      0.000512      0.011517
     14.32352      8.75703      9.32135        -0.004109      0.003526      0.001173
      3.76971      4.17413      9.37971         0.007866      0.003761     -0.011919
      6.42729      8.76516      9.25532         0.020080      0.010495      0.022576
     11.68394      4.15561      9.36511        -0.009750      0.006076      0.018231
      9.01985      8.75900      9.30636        -0.027965      0.005285     -0.021139
     10.36030      1.91098      9.26703         0.001092     -0.010037     -0.003375
      2.44423      1.90882      9.29113        -0.001421     -0.018774      0.016547
     11.68344      8.77436      9.41919         0.023345      0.011468     -0.002946
     13.04423      6.47122      9.41055        -0.008048      0.001869      0.006268
      5.06509      1.92457      9.37724         0.004193      0.014856      0.016410
      7.71353      6.47592      9.37043         0.013099      0.020092     -0.010523
      9.03494      4.18185      9.31859        -0.000403      0.000062      0.000355
      5.08997      6.47309      9.35646         0.001256      0.002608      0.004070
      7.73137      1.90384      9.33905        -0.010640      0.013213     -0.018908
      7.81115      3.38396      6.98352        -0.001118     -0.002331      0.003749
      6.32114      1.10551      6.93511        -0.006268      0.006323      0.015727
      6.42748      1.11951      0.84379        -0.003018      0.035365      0.009296
      3.74457      4.22498      2.80295         0.004622      0.023075     -0.039035
      1.13871      1.22696      6.88621         0.006745     -0.011654      0.013838
      1.05351      1.23301      0.75714         0.008983      0.012599      0.003914
      6.37970      8.73232      2.89580        -0.006977      0.011971      0.015481
      6.40642      4.20026      9.40325        -0.009271     -0.010873     -0.006548
      7.71519      4.98986      4.84188        -0.004905     -0.032088     -0.047848
     10.30950      6.47041      9.33286        -0.012237      0.000924      0.007293
     14.36690      7.24966      4.78751        -0.045868     -0.030278     -0.122138
     11.63075      5.68504      7.03174         0.009992     -0.004774      0.014001
      6.43088      5.76980      7.01864        -0.000747     -0.003092     -0.005094
      3.72880      2.59487      4.89932        -0.007533     -0.051990     -0.016069
     10.40714      4.90964      4.85294         0.042768      0.034730      0.072390
      3.72728      5.70671      7.06367         0.005974     -0.000336     -0.014186
     13.01076      7.95414      0.82285        -0.009702      0.029671     -0.013893
      5.07062      7.97664      0.75916        -0.002452      0.011759     -0.002928
      3.74725      5.77233      0.77268         0.004118      0.007043     -0.009002
      7.73906      1.95923      2.91892         0.007915      0.001391     -0.006545
      9.04575      8.78897      2.87226        -0.006276     -0.010416      0.008526
      2.43054      3.46719      7.05560        -0.001470     -0.002375      0.001146
      2.40788      3.44595      0.73676        -0.012822      0.026642      0.001583
     10.29842      1.96823      2.88139         0.022800     -0.013804     -0.007670
     13.01351      4.98805      4.94410         0.005256     -0.004805      0.011911
      3.72424      1.07541      7.03971        -0.003081      0.003239      0.004667
      9.03845      5.76543      7.06113         0.007123      0.000594      0.003953
      3.74683      1.15285      0.81959        -0.001324      0.003273      0.011140
      9.06513      5.72471      0.92537        -0.011890      0.026110     -0.003231
      5.21212      3.41637      0.86086         0.001106      0.011478     -0.002478
     11.65625      8.70496      2.91787        -0.028185     -0.014074      0.022029
     11.62151      7.29974      4.90178         0.044502     -0.008091      0.079933
     12.89980      6.49745      2.82364         0.020242     -0.022135     -0.003467
      9.01343      4.18612      2.81919         0.016162      0.005299     -0.010251
      7.80272      8.00517      6.96774        -0.002698      0.000947      0.003125
      7.81053      7.92859      0.86888        -0.019014     -0.005228      0.014497
     10.31657      6.54831      2.89472         0.024405      0.017884     -0.013737
      2.46166      0.31661      4.92733         0.021834     -0.035089      0.000418
      7.75154      3.52543      0.86333        -0.000596      0.004821      0.014334
      5.10291      1.89984      2.87069        -0.012713      0.022341      0.006208
      5.17349      6.40557      2.77226        -0.007683      0.020474      0.036871
      7.65418      0.39388      4.89233        -0.018976     -0.064630      0.030604
      9.05309      1.14436      7.10431         0.006125      0.002634     -0.002981
[...]
      6.39598      2.67997      4.92292         0.012778     -0.063161     -0.040804
     11.64052      4.17844      2.78900        -0.008983      0.019717      0.008229
      2.34972      1.92500      2.86197         0.011641      0.003977     -0.023060
     11.59075      5.72177      0.94802        -0.031923      0.006310     -0.004891
      6.50379      5.69604      0.91052        -0.006191      0.008660      0.003319
      7.71278      6.45493      2.81038        -0.014757      0.020727      0.044739
      6.43155      4.20716      2.83788         0.007583     -0.011938     -0.008315
     10.36356      3.37807      7.00080         0.007369      0.002995     -0.008278
     10.36553      3.54396      0.90454        -0.015241      0.006969     -0.028355
     10.23662      0.46679      4.91587        -0.033537     -0.020764      0.004001
      9.06408      7.34028      4.95059         0.020567     -0.023396      0.028199
      6.48344      7.27349      4.94428         0.031190     -0.032196     -0.061274
      5.04827      0.31035      4.87551         0.014775     -0.015196      0.036342
     10.42062      8.81075     10.53023         0.008373      0.039015      0.016625
     11.72296      5.70403     10.35844         0.031545     -0.008935      0.003967
    total drift:                                0.017343      0.003495     -0.008596

  FREE ENERGIE OF THE ION-ELECTRON SYSTEM (eV)
  free  energy   TOTEN  =      -518.24686765 eV

  energy  without entropy=     -518.25478197  energy(sigma->0) =     -518.24950576

 d Force = 0.4264182E-05[-0.187E-04, 0.273E-04]  d Energy = 0.2548871E-04-0.212E-04
 d Force = 0.8120641E+00[ 0.812E+00, 0.812E+00]  d Ewald  = 0.8120650E+00-0.853E-06

 reached required accuracy - stopping structural energy minimisation