 vasp.5.4.4.18Apr17-6-g9f103f2a35 (build Nov 30 2020 22:55:02) complex

 executed on             LinuxIFC date 2023.07.29  23:16:57

 INCAR:
 POTCAR:    PAW_PBE Pt 04Feb2005
 POTCAR:    PAW_PBE Cu 22Jun2005
 POTCAR:    PAW_PBE Ni 02Aug2007
 POTCAR:    PAW_PBE Fe 06Sep2000
 POTCAR:    PAW_PBE Co 02Aug2007
 POTCAR:    PAW_PBE H 15Jun2001
 POTCAR:    PAW_PBE Pt 04Feb2005
   VRHFIN =Pt: s1d9

   TITEL  = PAW_PBE Pt 04Feb2005
   POMASS =  195.080; ZVAL   =   10.000    mass and valenz
   ENMAX  =  230.283; ENMIN  =  172.712 eV

 POTCAR:    PAW_PBE Cu 22Jun2005
   VRHFIN =Cu: d10 p1

   TITEL  = PAW_PBE Cu 22Jun2005
   POMASS =   63.546; ZVAL   =   11.000    mass and valenz
   ENMAX  =  295.446; ENMIN  =  221.585 eV

 POTCAR:    PAW_PBE Ni 02Aug2007
   VRHFIN =Ni:

   TITEL  = PAW_PBE Ni 02Aug2007
   POMASS =   58.690; ZVAL   =   10.000    mass and valenz
   ENMAX  =  269.532; ENMIN  =  202.149 eV

 POTCAR:    PAW_PBE Fe 06Sep2000
   VRHFIN =Fe:  d7 s1

   TITEL  = PAW_PBE Fe 06Sep2000
   POMASS =   55.847; ZVAL   =    8.000    mass and valenz
   ENMAX  =  267.882; ENMIN  =  200.911 eV

 POTCAR:    PAW_PBE Co 02Aug2007
   VRHFIN =Co: d8 s1

   TITEL  = PAW_PBE Co 02Aug2007
   POMASS =   58.933; ZVAL   =    9.000    mass and valenz
   ENMAX  =  267.968; ENMIN  =  200.976 eV

 POTCAR:    PAW_PBE H 15Jun2001
   VRHFIN =H: ultrasoft test

   TITEL  = PAW_PBE H 15Jun2001
   POMASS =    1.000; ZVAL   =    1.000    mass and valenz
   ENMAX  =  250.000; ENMIN  =  200.000 eV

 Optimization of the real space projectors (new method)

 maximal supplied QI-value         = 14.36
 optimisation between [QCUT,QGAM] = [ 11.92, 23.98] = [ 39.79,161.09] Ry
 Optimized for a Real-space Cutoff    1.49 Angstroem

   l    n(q)    QCUT    max X(q) W(low)/X(q) W(high)/X(q)  e(spline)
   2     10    11.920    66.195    0.79E-04    0.18E-03    0.24E-06
   2     10    11.920    64.643    0.81E-04    0.19E-03    0.24E-06
   0     11    11.920    95.520    0.28E-04    0.54E-04    0.18E-06
   0     11    11.920    63.403    0.27E-04    0.52E-04    0.17E-06
   1     10    11.920    19.961    0.18E-04    0.11E-03    0.23E-06
   1     10    11.920    13.289    0.25E-04    0.87E-04    0.19E-06
 Optimization of the real space projectors (new method)

[...]

   l    n(q)    QCUT    max X(q) W(low)/X(q) W(high)/X(q)  e(spline)
   2      9    11.864    65.824    0.22E-03    0.53E-03    0.26E-06
   2      9    11.864    61.429    0.22E-03    0.53E-03    0.26E-06
   0      9    11.864    56.174    0.21E-03    0.32E-04    0.15E-06
   0      9    11.864    31.263    0.19E-03    0.30E-04    0.14E-06
   1      9    11.864    19.828    0.63E-04    0.30E-03    0.16E-06
   1      9    11.864    15.139    0.49E-04    0.25E-03    0.13E-06
 Optimization of the real space projectors (new method)

 maximal supplied QI-value         = 34.20
 optimisation between [QCUT,QGAM] = [ 11.97, 23.94] = [ 40.13,160.53] Ry
 Optimized for a Real-space Cutoff    1.18 Angstroem

   l    n(q)    QCUT    max X(q) W(low)/X(q) W(high)/X(q)  e(spline)
   0      8    11.971    19.460    0.15E-03    0.31E-03    0.25E-06
   0      8    11.971    12.209    0.13E-03    0.29E-03    0.25E-06
   1      8    11.971     4.655    0.22E-03    0.24E-03    0.21E-06
  PAW_PBE Pt 04Feb2005                  :
  PAW_PBE Cu 22Jun2005                  :
  PAW_PBE Ni 02Aug2007                  :
  PAW_PBE Fe 06Sep2000                  :
  PAW_PBE Co 02Aug2007                  :
  PAW_PBE H 15Jun2001                   :

 POSCAR: 10.56
  positions in direct lattice
  velocities in cartesian coordinates
 exchange correlation table for  LEXCH =        8
   RHO(1)=    0.500       N(1)  =     2000
   RHO(2)=  100.500       N(2)  =     4000

 ion  position               nearest neighbor table
   1  0.790  0.877  0.316-  49 2.55  59 2.56  19 2.63  33 2.66  61 2.67  60 2.67  29 2.68  28 2.69
                             2 2.71   4 2.81  11 2.84  12 2.86
   2  0.044  0.882  0.316-  79 2.55  77 2.56  60 2.62  30 2.64  22 2.65  28 2.66  52 2.68   1 2.71
                            33 2.74   6 2.78   4 2.86  16 2.90
   3  0.287  0.379  0.320-  64 2.57  39 2.60  33 2.60  68 2.64  31 2.65  19 2.68  43 2.69  30 2.71
                            18 2.78   5 2.79  25 2.82  13 2.82
   4  0.869  0.962  0.424-  17 2.61  11 2.62  12 2.66  60 2.68   9 2.68  16 2.72   6 2.76   1 2.81
                             2 2.86
   5  0.124  0.459  0.427-  81 1.70  10 2.60  16 2.61   7 2.62  12 2.63  13 2.63  25 2.67  39 2.78
                            33 2.79   3 2.79
   6  0.129  0.964  0.421-   8 2.59  10 2.60  14 2.66   9 2.68  16 2.75   4 2.76   2 2.78  52 2.80
                            22 2.85
   7  0.875  0.460  0.423-  81 1.71   9 2.61  12 2.61   5 2.62  10 2.63  15 2.63  27 2.67  39 2.70
                            29 2.74  75 2.77
   8  0.377  0.960  0.419-   6 2.59  11 2.60  27 2.61  14 2.64  43 2.64  13 2.64  10 2.66  61 2.67
                            52 2.70
   9  0.873  0.214  0.422-   7 2.61  15 2.61  17 2.64  60 2.65  10 2.65   6 2.68  75 2.68   4 2.68
                            22 2.83
  10  0.125  0.212  0.423-  81 1.79   6 2.60   5 2.60  13 2.62   7 2.63   9 2.65   8 2.66  39 2.73
                            43 2.74  22 2.84
  11  0.622  0.961  0.424-   8 2.60   4 2.62  27 2.62  13 2.63  17 2.66  12 2.66  61 2.81  19 2.83
                             1 2.84
  12  0.874  0.708  0.425-   7 2.61   5 2.63  27 2.63  16 2.66   4 2.66  11 2.66  33 2.75  29 2.81
                             1 2.86
  13  0.374  0.210  0.428-  10 2.62  11 2.63   5 2.63   8 2.64  17 2.65  25 2.65   3 2.82  43 2.84
                            19 2.90
  14  0.378  0.710  0.426-  27 2.60  15 2.62   8 2.64  25 2.64   6 2.66  16 2.67  44 2.74  30 2.79
                            52 2.86
  15  0.625  0.461  0.424-   9 2.61  14 2.62   7 2.63  27 2.64  25 2.64  17 2.65  44 2.74  18 2.77
                            75 2.80
  16  0.127  0.705  0.425-  25 2.60   5 2.61  12 2.66  14 2.67   4 2.72   6 2.75  33 2.75  30 2.79
                             2 2.90
  17  0.624  0.211  0.425-   4 2.61  25 2.63   9 2.64  15 2.65  13 2.65  11 2.66  60 2.73  18 2.77
                            19 2.90
  18  0.554  0.371  0.318-  67 2.54  75 2.55  60 2.56  68 2.60  26 2.67  44 2.68  19 2.72  30 2.75
                            15 2.77  17 2.77   3 2.78  25 2.90
  19  0.537  0.122  0.315-  59 2.54  68 2.54  80 2.54  43 2.60  61 2.61   1 2.63   3 2.68  18 2.72
                            60 2.75  11 2.83  13 2.90  17 2.90
  20  0.547  0.122  0.038-  57 2.54  37 2.59  48 2.60  62 2.60  47 2.60  34 2.65  45 2.68  63 2.71
                            56 2.75
  21  0.124  0.462  0.127-  36 2.55  47 2.57  40 2.58  58 2.61  42 2.61  64 2.63  31 2.66  69 2.66
                            50 2.67  74 2.69  70 2.69  57 2.69
  22  0.040  0.135  0.313-  65 2.46  75 2.54  55 2.54  77 2.58  39 2.59  43 2.59  60 2.65   2 2.65
                            52 2.74   9 2.83  10 2.84   6 2.85
  23  0.032  0.135  0.034-  70 2.57  62 2.59  40 2.59  41 2.60  76 2.63  45 2.70  24 2.70  35 2.71
                            53 2.86
  24  0.127  0.955  0.132-  79 2.52  55 2.55  53 2.61  35 2.62  77 2.62  58 2.62  73 2.64  70 2.65
                            38 2.67  66 2.68  23 2.70  41 2.74
  25  0.376  0.461  0.427-  16 2.60  17 2.63  15 2.64  14 2.64  13 2.65   5 2.67   3 2.82  30 2.84
                            18 2.90
  26  0.458  0.546  0.220-  73 2.50  74 2.51  51 2.53  79 2.60  64 2.61  30 2.65  68 2.66  18 2.67
                            32 2.69  44 2.71  78 2.71  67 2.74
  27  0.623  0.712  0.424-  14 2.60   8 2.61  11 2.62  12 2.63  15 2.64   7 2.67  44 2.71  61 2.76
                            29 2.77
  28  0.964  0.793  0.218-  66 2.54  50 2.56  58 2.58  77 2.63  42 2.64  64 2.65   2 2.66  79 2.68
                             1 2.69  59 2.70  33 2.74  49 2.75
  29  0.789  0.624  0.319-  44 2.59  42 2.59  32 2.61  39 2.61  75 2.64  61 2.65  49 2.65  33 2.66
                             1 2.68   7 2.74  27 2.77  12 2.81
  30  0.293  0.632  0.319-  79 2.56  44 2.60  64 2.61  52 2.62   2 2.64  26 2.65  33 2.71   3 2.71
                            18 2.75  14 2.79  16 2.79  25 2.84
  31  0.211  0.284  0.223-  57 2.55  70 2.55  65 2.59  55 2.61  43 2.61  80 2.64   3 2.65  21 2.66
                            68 2.67  39 2.67  42 2.71  64 2.72
  32  0.717  0.537  0.221-  69 2.51  54 2.56  51 2.57  65 2.60  29 2.61  42 2.61  75 2.64  67 2.64
                            49 2.68  26 2.69  44 2.75  78 2.78
  33  0.040  0.625  0.321-  42 2.58  39 2.59   3 2.60  64 2.65   1 2.66  29 2.66  30 2.71   2 2.74
                            28 2.74  12 2.75  16 2.75   5 2.79
  34  0.797  0.870  0.037-  50 2.48  66 2.50  36 2.54  48 2.61  35 2.62  63 2.64  71 2.65  20 2.65
                            62 2.72
  35  0.044  0.872  0.035-  58 2.56  36 2.57  66 2.61  24 2.62  34 2.62  72 2.70  23 2.71  62 2.72
                            53 2.74
  36  0.039  0.631  0.035-  58 2.54  34 2.54  21 2.55  35 2.57  50 2.59  40 2.68  71 2.72  72 2.76
                            47 2.78
  37  0.626  0.214  0.133-  68 2.52  59 2.52  67 2.52  41 2.56  51 2.57  56 2.58  66 2.59  20 2.59
                            74 2.60  62 2.60  57 2.64  48 2.76
  38  0.376  0.961  0.131-  80 2.47  53 2.51  55 2.53  78 2.53  63 2.53  45 2.55  54 2.58  48 2.61
                            57 2.62  24 2.67  70 2.69  73 2.69
  39  0.040  0.380  0.321-  22 2.59  33 2.59   3 2.60  42 2.60  29 2.61  75 2.63  65 2.67  31 2.67
                            43 2.70   7 2.70  10 2.73   5 2.78
  40  0.040  0.377  0.033-  69 2.55  21 2.58  23 2.59  76 2.61  70 2.61  45 2.66  71 2.67  36 2.68
                            47 2.81
  41  0.868  0.215  0.131-  67 2.47  65 2.53  76 2.53  77 2.53  37 2.56  51 2.56  62 2.57  69 2.59
                            23 2.60  70 2.61  66 2.63  24 2.74
  42  0.960  0.545  0.225-  33 2.58  29 2.59  39 2.60  50 2.61  32 2.61  21 2.61  28 2.64  64 2.65
                            69 2.68  65 2.69  49 2.70  31 2.71
  43  0.292  0.121  0.320-  52 2.54  55 2.58  22 2.59  19 2.60  61 2.60  31 2.61   8 2.64  80 2.66
                             3 2.69  39 2.70  10 2.74  13 2.84
  44  0.540  0.632  0.321-  61 2.56  52 2.56  29 2.59  30 2.60  78 2.63  18 2.68  26 2.71  27 2.71
                            75 2.73  14 2.74  15 2.74  32 2.75
  45  0.292  0.126  0.037-  38 2.55  57 2.57  70 2.59  40 2.66  53 2.66  20 2.68  23 2.70  47 2.70
                            63 2.74
  46  0.545  0.626  0.042-  73 2.43  51 2.44  54 2.47  71 2.53  53 2.54  76 2.54  63 2.55  72 2.56
                            56 2.56
  47  0.307  0.374  0.039-  74 2.45  57 2.52  56 2.54  21 2.57  20 2.60  72 2.62  45 2.70  36 2.78
                            40 2.81
  48  0.628  0.952  0.133-  49 2.43  80 2.48  59 2.50  63 2.52  50 2.54  54 2.54  20 2.60  34 2.61
                            66 2.61  38 2.61  57 2.66  37 2.76
  49  0.701  0.798  0.223-  48 2.43  54 2.51  80 2.51   1 2.55  78 2.56  50 2.57  61 2.58  59 2.60
                            29 2.65  32 2.68  42 2.70  28 2.75
  50  0.866  0.710  0.128-  71 2.42  34 2.48  48 2.54  28 2.56  49 2.57  54 2.58  36 2.59  42 2.61
[...]
   -.109E+03 0.414E+01 -.145E+04   0.109E+03 -.394E+01 0.145E+04   0.442E+00 -.216E+00 0.287E+01   -.898E-02 0.209E-02 0.877E-01
   0.508E+01 -.186E+02 -.287E+04   -.511E+01 0.188E+02 0.287E+04   0.588E-01 -.213E+00 0.106E+01   -.541E-02 0.142E-01 0.212E-01
   -.373E+02 -.120E+02 -.295E+04   0.380E+02 0.123E+02 0.295E+04   -.705E+00 -.323E+00 0.418E+00   -.115E-01 0.165E-02 -.631E-01
   0.392E+02 -.229E+01 -.288E+04   -.391E+02 0.208E+01 0.288E+04   -.153E+00 0.136E+00 0.913E+00   0.185E-01 0.102E-01 -.192E-02
   0.421E+02 -.417E+01 -.291E+04   -.429E+02 0.453E+01 0.291E+04   0.817E+00 -.415E+00 0.670E+00   0.882E-02 -.189E-02 -.256E-01
   -.178E+02 0.860E+01 -.289E+04   0.179E+02 -.883E+01 0.289E+04   -.603E-02 0.274E+00 0.165E+01   -.298E-01 0.402E-02 -.631E-03
   0.259E+02 0.252E+02 -.286E+04   -.265E+02 -.251E+02 0.286E+04   0.590E+00 -.121E+00 0.178E+01   -.236E-02 -.119E-01 0.197E-01
   0.245E+02 0.316E+02 -.293E+04   -.244E+02 -.325E+02 0.293E+04   -.593E-01 0.897E+00 0.346E+00   0.599E-02 0.397E-03 -.524E-01
   -.297E+02 -.126E+02 -.288E+04   0.295E+02 0.126E+02 0.288E+04   0.263E+00 -.516E-01 0.896E+00   0.487E-02 0.488E-02 0.175E-01
   0.601E+01 -.452E+02 -.291E+04   -.587E+01 0.453E+02 0.291E+04   -.111E+00 -.105E+00 0.971E+00   0.498E-03 0.664E-02 0.125E-01
   -.480E+02 0.364E+01 -.291E+04   0.483E+02 -.374E+01 0.291E+04   -.272E+00 0.863E-01 0.782E+00   -.850E-02 0.742E-02 0.156E-01
   0.237E+02 0.342E+01 -.295E+04   -.237E+02 -.349E+01 0.295E+04   -.421E-01 0.430E-01 0.940E+00   -.441E-02 0.142E-01 0.228E-01
   0.178E+02 0.353E+02 -.290E+04   -.178E+02 -.353E+02 0.290E+04   -.799E-01 -.163E-01 0.103E+01   0.320E-02 0.921E-02 0.240E-01
   -.100E+02 -.293E+02 -.290E+04   0.100E+02 0.291E+02 0.290E+04   -.355E-01 0.150E+00 0.808E+00   0.348E-02 -.501E-02 0.109E-01
   -.335E+00 0.127E+02 -.287E+04   0.625E+00 -.128E+02 0.287E+04   -.307E+00 0.521E-01 0.123E+01   -.170E-02 -.113E-01 0.284E-01
   0.478E+02 0.469E+02 -.142E+04   -.460E+02 -.480E+02 0.141E+04   -.173E+01 0.110E+01 0.279E+01   -.153E-01 0.105E-01 0.102E+00
   -.897E+02 -.381E+02 -.141E+04   0.894E+02 0.372E+02 0.141E+04   0.258E+00 0.921E+00 0.364E+01   0.153E-02 -.599E-02 0.113E+00
   -.227E+02 -.238E+02 0.300E+04   0.227E+02 0.241E+02 -.300E+04   -.626E-02 -.283E+00 -.196E+01   0.174E-01 0.320E-03 -.386E-01
   -.725E+02 0.228E+02 0.148E+04   0.730E+02 -.224E+02 -.148E+04   -.570E+00 -.320E+00 -.940E-01   0.135E-01 0.275E-01 0.922E-02
   0.972E+02 0.242E+02 -.140E+04   -.976E+02 -.229E+02 0.140E+04   0.445E+00 -.125E+01 0.308E+01   0.134E-01 -.466E-01 0.885E-01
   0.348E+02 0.499E+02 0.303E+04   -.354E+02 -.488E+02 -.303E+04   0.659E+00 -.116E+01 -.217E+01   -.368E-01 0.623E-02 -.452E-01
   0.904E+02 0.264E+01 0.147E+04   -.906E+02 -.386E+01 -.147E+04   0.851E-01 0.125E+01 -.117E+01   -.225E-01 -.234E-01 0.164E-01
   -.217E+02 0.202E+02 -.289E+04   0.216E+02 -.202E+02 0.289E+04   0.215E+00 -.114E+00 0.710E+00   -.119E-01 0.478E-02 0.781E-02
   0.535E+02 0.625E+02 0.237E+02   -.546E+02 -.625E+02 -.255E+02   0.108E+01 -.268E-01 0.171E+01   -.692E-02 0.262E-01 0.459E-01
   -.216E+02 -.160E+02 -.292E+04   0.213E+02 0.163E+02 0.292E+04   0.300E+00 -.273E+00 0.120E+01   -.153E-01 -.404E-02 0.646E-02
   -.662E+02 -.384E+02 0.116E+03   0.666E+02 0.384E+02 -.118E+03   -.335E+00 -.880E-01 0.175E+01   0.262E-01 0.326E-02 0.494E-01
   0.160E+02 -.368E+02 -.149E+04   -.163E+02 0.365E+02 0.149E+04   0.371E+00 0.215E+00 0.224E+01   -.419E-02 0.234E-01 0.790E-01
   0.379E+02 0.563E+02 -.145E+04   -.380E+02 -.555E+02 0.145E+04   0.361E-01 -.735E+00 0.275E+01   0.610E-02 0.343E-01 0.845E-01
   -.771E+02 -.503E+02 0.757E+02   0.772E+02 0.495E+02 -.768E+02   -.242E+00 0.744E+00 0.117E+01   0.351E-02 0.116E-01 0.824E-01
   0.462E+02 0.520E+02 0.133E+02   -.455E+02 -.530E+02 -.141E+02   -.798E+00 0.109E+01 0.805E+00   -.493E-02 0.237E-01 0.420E-01
   -.719E+02 -.658E+02 -.163E+04   0.719E+02 0.653E+02 0.163E+04   0.767E-01 0.699E+00 0.103E+01   0.865E-02 0.120E-02 0.833E-01
   0.101E+02 -.906E+02 0.332E+04   -.106E+02 0.907E+02 -.332E+04   0.334E+00 0.263E-01 -.232E+01   0.963E-02 -.129E-02 -.349E-01
   -.330E+02 -.508E+02 0.329E+04   0.324E+02 0.504E+02 -.328E+04   0.663E+00 0.451E+00 -.293E+01   -.224E-02 0.898E-02 -.163E-01
   -.546E+02 0.440E+02 0.331E+04   0.548E+02 -.437E+02 -.331E+04   -.172E+00 -.321E+00 -.359E+01   -.442E-02 0.102E-01 -.269E-01
   0.517E+02 0.284E+02 0.158E+04   -.516E+02 -.285E+02 -.158E+04   -.826E-01 0.229E-02 -.133E+01   0.191E-01 0.840E-02 -.312E-01
   0.221E+02 -.667E+02 0.167E+04   -.215E+02 0.665E+02 -.167E+04   -.650E+00 0.152E+00 -.912E+00   -.210E-01 -.314E-01 -.149E-02
   0.113E+02 0.181E+02 -.165E+04   -.117E+02 -.185E+02 0.165E+04   0.455E+00 0.316E+00 0.155E+01   0.213E-01 -.460E-02 0.101E+00
   -.319E+02 0.381E+01 0.335E+04   0.304E+02 -.415E+01 -.335E+04   0.156E+01 0.345E+00 -.324E+01   -.390E-01 0.246E-01 -.531E-01
   0.296E+01 0.815E+02 0.162E+04   -.324E+01 -.812E+02 -.162E+04   0.352E+00 -.399E+00 -.113E+01   -.251E-01 -.788E-02 -.416E-01
   -.587E+02 0.219E+02 0.355E+02   0.585E+02 -.215E+02 -.357E+02   0.210E+00 -.409E+00 0.278E-01   0.145E-01 0.110E-01 0.662E-01
   -.674E+02 -.429E+02 -.164E+04   0.671E+02 0.423E+02 0.164E+04   0.333E+00 0.696E+00 0.172E+01   -.304E-01 -.248E-01 0.101E+00
   0.118E+02 0.740E+02 -.163E+04   -.117E+02 -.731E+02 0.163E+04   -.920E-01 -.989E+00 0.964E+00   -.164E-01 0.408E-01 0.858E-01
   -.373E+02 -.258E+01 0.331E+04   0.377E+02 0.209E+01 -.330E+04   -.428E+00 0.485E+00 -.280E+01   0.451E-02 -.162E-01 -.521E-01
   0.206E+02 0.216E+02 0.304E+04   -.205E+02 -.215E+02 -.304E+04   -.159E+00 -.112E+00 -.657E+00   0.199E-01 -.215E-01 -.277E-01
   -.196E+02 0.577E+01 0.297E+04   0.213E+02 -.589E+01 -.297E+04   -.166E+01 0.118E+00 -.214E+01   0.131E-01 0.106E-01 -.244E-01
   -.664E+02 -.115E+03 0.148E+04   0.664E+02 0.115E+03 -.148E+04   -.967E-01 0.514E+00 -.928E+00   0.131E-01 -.949E-02 -.236E-01
   -.661E+02 -.154E+02 -.532E+02   0.653E+02 0.161E+02 0.524E+02   0.770E+00 -.694E+00 0.619E+00   0.672E-03 -.285E-01 0.721E-01
   -.111E+03 0.230E+00 0.148E+04   0.110E+03 0.177E+00 -.148E+04   0.648E-01 -.433E+00 -.425E+00   0.120E-01 -.885E-02 -.791E-02
   0.421E+02 0.330E+02 0.148E+04   -.421E+02 -.326E+02 -.148E+04   -.617E-01 -.369E+00 0.304E-01   0.884E-02 0.914E-02 -.353E-01
   0.740E+02 0.209E+02 -.147E+04   -.737E+02 -.211E+02 0.147E+04   -.421E+00 0.227E+00 0.166E+01   -.946E-02 0.955E-02 0.744E-01
   0.458E+02 -.350E+02 0.303E+04   -.450E+02 0.338E+02 -.303E+04   -.837E+00 0.126E+01 -.201E+01   -.368E-02 -.126E-01 -.283E-01
   0.174E+02 0.361E+02 0.146E+04   -.169E+02 -.359E+02 -.146E+04   -.444E+00 -.162E+00 -.380E+00   -.129E-01 -.261E-01 -.180E-01
   0.806E+02 -.513E+02 0.405E+02   -.804E+02 0.510E+02 -.405E+02   -.174E+00 0.310E+00 -.163E+00   -.218E-01 -.376E-01 0.996E-01
   0.870E+01 0.564E+02 0.244E+04   -.842E+01 -.559E+02 -.244E+04   -.320E+00 -.527E+00 -.279E+01   0.267E-01 0.386E-02 -.206E-01
   -.193E+02 -.504E+02 0.116E+04   0.193E+02 0.507E+02 -.116E+04   -.813E-01 -.344E+00 -.749E+00   0.924E-02 0.143E-01 -.383E-02
   0.217E+02 -.149E+02 0.117E+04   -.214E+02 0.146E+02 -.117E+04   -.393E+00 0.341E+00 -.800E+00   0.293E-02 0.872E-02 0.774E-02
   -.528E+02 -.452E+02 -.206E+02   0.529E+02 0.456E+02 0.203E+02   -.154E+00 -.517E+00 0.232E+00   0.299E-01 -.107E-01 0.520E-01
   0.424E+02 0.139E+02 -.118E+04   -.422E+02 -.137E+02 0.118E+04   -.269E+00 -.230E+00 0.112E+01   0.790E-02 -.256E-01 0.729E-01
[...]
   -.315E+01 -.148E+02 -.724E+01   0.333E+01 0.142E+02 0.675E+01   -.162E+00 0.553E+00 0.412E+00   -.905E-02 0.202E-01 0.441E-01
   -.412E+02 0.291E+02 0.135E+04   0.412E+02 -.291E+02 -.135E+04   0.138E-01 -.228E-01 -.110E+00   -.275E-01 0.218E-01 -.316E-01
   -.237E+02 -.773E+01 0.133E+04   0.240E+02 0.830E+01 -.133E+04   -.243E+00 -.580E+00 -.970E+00   -.895E-02 -.724E-02 0.261E-02
   -.677E+01 -.807E+00 0.272E+04   0.562E+01 0.130E+01 -.271E+04   0.112E+01 -.447E+00 -.241E+01   -.208E-01 -.171E-01 -.337E-01
   0.348E+02 0.198E+02 0.270E+04   -.340E+02 -.201E+02 -.269E+04   -.795E+00 0.332E+00 -.278E+01   0.710E-02 0.400E-02 -.180E-01
   0.715E+02 0.268E+01 0.132E+04   -.718E+02 -.285E+01 -.132E+04   0.259E+00 0.224E+00 0.247E-01   -.496E-02 -.428E-02 0.295E-02
   0.642E+02 0.291E+02 0.130E+04   -.644E+02 -.290E+02 -.130E+04   0.222E+00 -.106E+00 -.122E+00   0.588E-02 0.156E-01 0.801E-03
   0.514E+02 0.274E+02 -.129E+04   -.515E+02 -.278E+02 0.129E+04   0.207E+00 0.491E+00 0.113E+01   0.384E-02 -.270E-02 0.888E-01
   0.498E+02 0.557E+02 0.274E+04   -.504E+02 -.552E+02 -.274E+04   0.639E+00 -.556E+00 -.180E+01   -.970E-02 0.806E-02 -.349E-01
   0.464E+02 0.292E+02 -.205E+01   -.470E+02 -.286E+02 0.194E+01   0.622E+00 -.589E+00 -.127E-01   0.136E-01 -.358E-01 0.572E-01
   0.220E+02 0.747E+02 -.145E+02   -.219E+02 -.738E+02 0.148E+02   -.828E-01 -.104E+01 -.403E+00   -.322E-01 -.389E-02 0.751E-01
   0.101E+03 0.451E+02 0.318E+02   -.101E+03 -.449E+02 -.321E+02   -.569E+00 -.230E+00 0.123E+00   0.332E-02 0.164E-01 0.654E-01
   -.752E+02 -.107E+03 0.116E+02   0.756E+02 0.107E+03 -.119E+02   -.427E+00 0.350E+00 0.131E+00   -.283E-01 -.452E-02 0.710E-01
   0.340E+01 0.173E+01 -.349E+03   -.350E+01 -.180E+01 0.351E+03   0.112E+00 0.496E-01 -.167E+01   0.193E-03 -.252E-03 -.381E-02
   -.285E+00 -.509E+00 -.470E+01   -.187E-13 0.418E-12 -.358E-11   0.393E+00 0.435E+00 0.296E+01   -.767E-01 0.498E-01 0.174E+01

 POSITION                                       TOTAL-FORCE (eV/Angst)
     12.97217      8.01619      6.94866        -0.013819      0.024801     -0.003341
      5.12249      8.06676      6.95400         0.014290      0.004529     -0.028372
      5.02011      3.46346      7.04387        -0.008065     -0.014111      0.025089
     14.31229      8.77709      9.33024         0.031240     -0.013706     -0.006472
      3.77585      4.21801      9.46926        -0.019172     -0.011910      0.021356
      6.41115      8.78238      9.28107        -0.035202     -0.018941     -0.000192
     11.65681      4.22360      9.35744         0.022042     -0.008775      0.001830
      9.03300      8.77428      9.21137         0.014863     -0.001707      0.010076
     10.34189      1.92998      9.25571        -0.001098     -0.002665      0.011418
      2.44001      1.89628      9.36274         0.015090      0.009211      0.026828
     11.65465      8.77941      9.33938         0.008916     -0.009127     -0.004764
     12.99595      6.50222      9.34221         0.000728     -0.009259      0.008711
      5.07811      1.91087      9.38571         0.009167      0.003021     -0.000290
      7.72286      6.50331      9.38101         0.027314     -0.011936     -0.029578
      9.04269      4.22041      9.32396         0.002544      0.007691     -0.002265
      5.07328      6.49805      9.35506         0.017301      0.014369      0.004472
      7.71563      1.91893      9.35140         0.004794     -0.003366     -0.012789
      7.80782      3.39036      6.98819         0.007762      0.003837      0.021042
      6.32172      1.11816      6.92694        -0.002877     -0.018107      0.015033
      6.42748      1.11951      0.84379        -0.005474      0.037167      0.012104
      3.74457      4.22498      2.80295         0.001257      0.017060     -0.029851
      1.14240      1.23666      6.89937        -0.011478     -0.032677      0.004458
      1.05351      1.23301      0.75714         0.002060      0.008576      0.001969
      6.37970      8.73232      2.89580        -0.004432      0.018610      0.013469
      6.40055      4.21753      9.38750         0.011966     -0.008826      0.003570
      7.71519      4.98986      4.84188        -0.003804     -0.033509     -0.013154
     10.33792      6.51122      9.31511        -0.008606     -0.025875      0.011859
     14.36690      7.24966      4.78751         0.020476     -0.007457     -0.048231
     11.63397      5.69223      7.01662        -0.007750     -0.023375      0.024783
      6.43278      5.77592      7.02156        -0.006264      0.017116      0.006895
      3.72880      2.59487      4.89932        -0.024242      0.008528      0.027960
     10.40714      4.90964      4.85294         0.035744      0.030172     -0.003351
      3.73148      5.71267      7.06180        -0.002989     -0.012511      0.015485
     13.01076      7.95414      0.82285        -0.022283      0.026711     -0.006797
      5.07062      7.97664      0.75916         0.000798      0.014957      0.002623
      3.74725      5.77233      0.77268         0.001139      0.004814     -0.014489
      7.73906      1.95923      2.91892         0.009558      0.001741     -0.004081
      9.04575      8.78897      2.87226        -0.006389     -0.016710      0.005121
      2.42728      3.47094      7.07599         0.010834     -0.005102      0.044033
      2.40788      3.44595      0.73676        -0.013359      0.025751     -0.002702
     10.29842      1.96823      2.88139         0.017843     -0.010033     -0.007458
     13.01351      4.98805      4.94410         0.012293     -0.029532     -0.000503
      3.71927      1.10207      7.03288         0.009780      0.006561      0.019149
      9.03789      5.77249      7.06077         0.012111     -0.004587      0.007601
      3.74683      1.15285      0.81959        -0.001961      0.003491      0.005652
      9.06513      5.72471      0.92537        -0.013718      0.019083     -0.010235
      5.21212      3.41637      0.86086        -0.002579      0.011312     -0.009905
     11.65625      8.70496      2.91787        -0.019502     -0.013668      0.010189
     11.62151      7.29974      4.90178         0.011536     -0.009761     -0.059543
     12.89980      6.49745      2.82364         0.018524     -0.019260     -0.004925
      9.01343      4.18612      2.81919        -0.014827      0.003309     -0.008132
      7.80209      8.01134      6.95287        -0.002283     -0.001096     -0.000241
      7.81053      7.92859      0.86888        -0.016125      0.001629      0.016991
     10.31657      6.54831      2.89472         0.020387      0.017690     -0.007330
      2.46166      0.31661      4.92733        -0.004025     -0.008478      0.003042
      7.75154      3.52543      0.86333         0.003873      0.007270      0.016552
      5.10291      1.89984      2.87069        -0.001423      0.017178      0.016176
      5.17349      6.40557      2.77226        -0.030486      0.033399     -0.004126
      7.65418      0.39388      4.89233        -0.009942     -0.019022     -0.014853
      9.05354      1.15430      7.10873         0.001597     -0.009057     -0.008093
[...]
      9.09183      2.62352      4.93970         0.018664      0.006997      0.002043
      6.39598      2.67997      4.92292         0.005713     -0.017168     -0.042141
     11.64052      4.17844      2.78900        -0.012237      0.000889      0.018954
      2.34972      1.92500      2.86197         0.014951      0.004140     -0.017667
     11.59075      5.72177      0.94802        -0.023304      0.011986     -0.022596
      6.50379      5.69604      0.91052         0.000279      0.006472      0.011463
      7.71278      6.45493      2.81038        -0.009951      0.010701      0.034674
      6.43155      4.20716      2.83788         0.021487     -0.014548     -0.000253
     10.36072      3.38487      6.99570        -0.003655      0.006777      0.013914
     10.36553      3.54396      0.90454        -0.003696      0.010829     -0.017918
     10.23662      0.46679      4.91587        -0.034682      0.016964      0.006982
      9.06408      7.34028      4.95059         0.013473     -0.029515     -0.009189
      6.48344      7.27349      4.94428         0.018242     -0.001105     -0.023929
      5.04827      0.31035      4.87551         0.010451      0.008611     -0.023710
      2.40854      3.42754     10.41998         0.015525     -0.024166     -0.007375
    total drift:                                0.030757     -0.024497      0.005485

  FREE ENERGIE OF THE ION-ELECTRON SYSTEM (eV)
  free  energy   TOTEN  =      -514.77558882 eV

  energy  without entropy=     -514.77276237  energy(sigma->0) =     -514.77464667

 d Force = 0.2273377E-02[ 0.139E-02, 0.316E-02]  d Energy = 0.2385390E-02-0.112E-03
 d Force = 0.1042982E+03[ 0.104E+03, 0.104E+03]  d Ewald  = 0.1042982E+03-0.453E-04

 Conjugate gradient step on ions:
 trial-energy change:   -0.002385  1 .order   -0.002273   -0.003159   -0.001388
  (g-gl).g = 0.304E-02      g.g   = 0.256E-02  gl.gl    = 0.410E-02
 g(Force)  = 0.256E-02   g(Stress)= 0.000E+00 ortho     =-0.299E-03
 gamma     =   0.74108
 trial     =   1.35147
 opt step  =   2.02618  (harmonic =   2.40991) maximal distance =0.01788444
 next E    =  -514.775949   (d E  =  -0.00275)

 reached required accuracy - stopping structural energy minimisation