 vasp.5.4.4.18Apr17-6-g9f103f2a35 (build Nov 30 2020 22:55:02) complex

 executed on             LinuxIFC date 2023.08.05  22:43:46

 INCAR:
 POTCAR:    PAW_PBE Pt 04Feb2005
 POTCAR:    PAW_PBE Cu 22Jun2005
 POTCAR:    PAW_PBE Ni 02Aug2007
 POTCAR:    PAW_PBE Fe 06Sep2000
 POTCAR:    PAW_PBE Co 02Aug2007
 POTCAR:    PAW_PBE H 15Jun2001
 POTCAR:    PAW_PBE Pt 04Feb2005
   VRHFIN =Pt: s1d9

   TITEL  = PAW_PBE Pt 04Feb2005
   POMASS =  195.080; ZVAL   =   10.000    mass and valenz
   ENMAX  =  230.283; ENMIN  =  172.712 eV

 POTCAR:    PAW_PBE Cu 22Jun2005
   VRHFIN =Cu: d10 p1

   TITEL  = PAW_PBE Cu 22Jun2005
   POMASS =   63.546; ZVAL   =   11.000    mass and valenz
   ENMAX  =  295.446; ENMIN  =  221.585 eV

 POTCAR:    PAW_PBE Ni 02Aug2007
   VRHFIN =Ni:

   TITEL  = PAW_PBE Ni 02Aug2007
   POMASS =   58.690; ZVAL   =   10.000    mass and valenz
   ENMAX  =  269.532; ENMIN  =  202.149 eV

 POTCAR:    PAW_PBE Fe 06Sep2000
   VRHFIN =Fe:  d7 s1

   TITEL  = PAW_PBE Fe 06Sep2000
   POMASS =   55.847; ZVAL   =    8.000    mass and valenz
   ENMAX  =  267.882; ENMIN  =  200.911 eV

 POTCAR:    PAW_PBE Co 02Aug2007
   VRHFIN =Co: d8 s1

   TITEL  = PAW_PBE Co 02Aug2007
   POMASS =   58.933; ZVAL   =    9.000    mass and valenz
   ENMAX  =  267.968; ENMIN  =  200.976 eV

 POTCAR:    PAW_PBE H 15Jun2001
   VRHFIN =H: ultrasoft test

   TITEL  = PAW_PBE H 15Jun2001
   POMASS =    1.000; ZVAL   =    1.000    mass and valenz
   ENMAX  =  250.000; ENMIN  =  200.000 eV

 Optimization of the real space projectors (new method)

 maximal supplied QI-value         = 14.36
 optimisation between [QCUT,QGAM] = [ 11.92, 23.98] = [ 39.79,161.09] Ry
 Optimized for a Real-space Cutoff    1.49 Angstroem

   l    n(q)    QCUT    max X(q) W(low)/X(q) W(high)/X(q)  e(spline)
   2     10    11.920    66.195    0.79E-04    0.18E-03    0.24E-06
   2     10    11.920    64.643    0.81E-04    0.19E-03    0.24E-06
   0     11    11.920    95.520    0.28E-04    0.54E-04    0.18E-06
   0     11    11.920    63.403    0.27E-04    0.52E-04    0.17E-06
   1     10    11.920    19.961    0.18E-04    0.11E-03    0.23E-06
   1     10    11.920    13.289    0.25E-04    0.87E-04    0.19E-06
 Optimization of the real space projectors (new method)

[...]

   l    n(q)    QCUT    max X(q) W(low)/X(q) W(high)/X(q)  e(spline)
   2      9    11.864    65.824    0.22E-03    0.53E-03    0.26E-06
   2      9    11.864    61.429    0.22E-03    0.53E-03    0.26E-06
   0      9    11.864    56.174    0.21E-03    0.32E-04    0.15E-06
   0      9    11.864    31.263    0.19E-03    0.30E-04    0.14E-06
   1      9    11.864    19.828    0.63E-04    0.30E-03    0.16E-06
   1      9    11.864    15.139    0.49E-04    0.25E-03    0.13E-06
 Optimization of the real space projectors (new method)

 maximal supplied QI-value         = 34.20
 optimisation between [QCUT,QGAM] = [ 11.97, 23.94] = [ 40.13,160.53] Ry
 Optimized for a Real-space Cutoff    1.18 Angstroem

   l    n(q)    QCUT    max X(q) W(low)/X(q) W(high)/X(q)  e(spline)
   0      8    11.971    19.460    0.15E-03    0.31E-03    0.25E-06
   0      8    11.971    12.209    0.13E-03    0.29E-03    0.25E-06
   1      8    11.971     4.655    0.22E-03    0.24E-03    0.21E-06
  PAW_PBE Pt 04Feb2005                  :
  PAW_PBE Cu 22Jun2005                  :
  PAW_PBE Ni 02Aug2007                  :
  PAW_PBE Fe 06Sep2000                  :
  PAW_PBE Co 02Aug2007                  :
  PAW_PBE H 15Jun2001                   :

 POSCAR: 10.56
  positions in direct lattice
  velocities in cartesian coordinates
 exchange correlation table for  LEXCH =        8
   RHO(1)=    0.500       N(1)  =     2000
   RHO(2)=  100.500       N(2)  =     4000

 ion  position               nearest neighbor table
   1  0.789  0.876  0.317-  49 2.57  59 2.58  19 2.62  61 2.65  60 2.66  33 2.67  29 2.67  28 2.71
                             2 2.72   4 2.82  12 2.84  11 2.90
   2  0.044  0.880  0.316-  79 2.55  77 2.57  60 2.61  30 2.64  22 2.65  28 2.66  52 2.68   1 2.72
                            33 2.73   6 2.76   4 2.82  16 2.87
   3  0.288  0.375  0.321-  39 2.60  64 2.61  33 2.61  68 2.65  31 2.66  19 2.67  43 2.68  30 2.72
                             5 2.76  18 2.78  25 2.81  13 2.91
   4  0.879  0.957  0.424-  16 2.63  12 2.65   6 2.65  17 2.65  11 2.65   9 2.65  60 2.70   2 2.82
                             1 2.82
   5  0.127  0.457  0.427-  13 2.62   7 2.63  10 2.63  12 2.63  16 2.65  25 2.65   3 2.76  39 2.79
                            33 2.79
   6  0.128  0.958  0.422-   8 2.61  10 2.63  14 2.64   4 2.65   9 2.65  16 2.65   2 2.76  52 2.82
                            22 2.88
   7  0.878  0.457  0.423-   9 2.63   5 2.63  15 2.63  10 2.63  12 2.63  27 2.66  39 2.70  29 2.73
                            75 2.77
   8  0.376  0.956  0.417-   6 2.61  14 2.62  43 2.62  27 2.63  10 2.65  52 2.65  61 2.66  11 2.67
                            13 2.69
   9  0.877  0.209  0.422-  17 2.62   7 2.63  15 2.64  10 2.64   6 2.65   4 2.65  60 2.65  75 2.72
                            22 2.83
  10  0.127  0.208  0.423-   6 2.63  13 2.63   7 2.63   5 2.63   9 2.64   8 2.65  43 2.73  39 2.73
                            22 2.82
  11  0.628  0.957  0.430-  81 1.76  12 2.64  27 2.64   4 2.65  17 2.67  13 2.67   8 2.67   1 2.90
                            19 2.93  61 2.94
  12  0.877  0.707  0.425-   5 2.63   7 2.63  16 2.64  11 2.64   4 2.65  27 2.65  33 2.75  29 2.82
                             1 2.84
  13  0.375  0.209  0.434-  81 1.75   5 2.62  10 2.63  25 2.66  11 2.67   8 2.69  17 2.69   3 2.91
                            43 2.97  19 3.00
  14  0.378  0.708  0.427-  27 2.62   8 2.62  25 2.63   6 2.64  15 2.64  16 2.65  44 2.76  30 2.79
                            52 2.88
  15  0.628  0.459  0.424-  27 2.62   7 2.63  17 2.64   9 2.64  14 2.64  25 2.65  44 2.76  18 2.78
                            75 2.80
  16  0.127  0.708  0.425-   4 2.63  25 2.63  12 2.64   5 2.65  14 2.65   6 2.65  33 2.77  30 2.78
                             2 2.87
  17  0.629  0.209  0.424-   9 2.62  15 2.64   4 2.65  25 2.66  11 2.67  60 2.68  13 2.69  18 2.76
                            19 2.88
  18  0.554  0.370  0.318-  67 2.53  75 2.55  60 2.57  68 2.60  44 2.68  26 2.68  19 2.73  30 2.75
                            17 2.76   3 2.78  15 2.78  25 2.91
  19  0.538  0.120  0.316-  59 2.55  80 2.55  68 2.57  43 2.59  61 2.61   1 2.62   3 2.67  18 2.73
                            60 2.74  17 2.88  11 2.93  13 3.00
  20  0.547  0.122  0.038-  57 2.54  37 2.59  48 2.60  62 2.60  47 2.60  34 2.65  45 2.68  63 2.71
                            56 2.75
  21  0.124  0.462  0.127-  36 2.55  47 2.57  40 2.58  58 2.61  42 2.61  64 2.63  31 2.66  69 2.66
                            50 2.67  74 2.69  70 2.69  57 2.69
  22  0.041  0.134  0.313-  65 2.47  75 2.54  55 2.54  77 2.57  39 2.59  43 2.59  60 2.65   2 2.65
                            52 2.74  10 2.82   9 2.83   6 2.88
  23  0.032  0.135  0.034-  70 2.57  62 2.59  40 2.59  41 2.60  76 2.63  45 2.70  24 2.70  35 2.71
                            53 2.86
  24  0.127  0.955  0.132-  79 2.52  55 2.55  53 2.61  35 2.62  77 2.62  58 2.62  73 2.64  70 2.65
                            38 2.67  66 2.68  23 2.70  41 2.74
  25  0.376  0.460  0.427-  16 2.63  14 2.63  15 2.65   5 2.65  17 2.66  13 2.66   3 2.81  30 2.84
                            18 2.91
  26  0.458  0.546  0.220-  73 2.50  74 2.51  51 2.53  79 2.60  64 2.61  30 2.65  68 2.66  18 2.68
                            32 2.69  44 2.70  78 2.71  67 2.74
  27  0.626  0.708  0.424-  14 2.62  15 2.62   8 2.63  11 2.64  12 2.65   7 2.66  44 2.70  29 2.75
                            61 2.78
  28  0.964  0.793  0.218-  66 2.54  50 2.56  58 2.58  77 2.63  42 2.64  64 2.65   2 2.66  79 2.68
                            59 2.70   1 2.71  49 2.75  33 2.75
  29  0.790  0.622  0.319-  42 2.59  44 2.60  32 2.61  39 2.61  75 2.64  61 2.65  33 2.66  49 2.66
                             1 2.67   7 2.73  27 2.75  12 2.82
  30  0.294  0.630  0.319-  79 2.57  64 2.60  44 2.61  52 2.62   2 2.64  26 2.65  33 2.70   3 2.72
                            18 2.75  16 2.78  14 2.79  25 2.84
  31  0.211  0.284  0.223-  57 2.55  70 2.55  65 2.59  43 2.61  55 2.61  80 2.64  21 2.66  39 2.66
                             3 2.66  68 2.67  42 2.71  64 2.72
  32  0.717  0.537  0.221-  69 2.51  54 2.56  51 2.57  65 2.60  29 2.61  42 2.61  67 2.64  75 2.64
                            49 2.68  26 2.69  44 2.74  78 2.78
  33  0.042  0.623  0.321-  42 2.57  39 2.59   3 2.61  64 2.63  29 2.66   1 2.67  30 2.70   2 2.73
                            12 2.75  28 2.75  16 2.77   5 2.79
  34  0.797  0.870  0.037-  50 2.48  66 2.50  36 2.54  48 2.61  35 2.62  63 2.64  71 2.65  20 2.65
                            62 2.72
  35  0.044  0.872  0.035-  58 2.56  36 2.57  66 2.61  24 2.62  34 2.62  72 2.70  23 2.71  62 2.72
                            53 2.74
  36  0.039  0.631  0.035-  58 2.54  34 2.54  21 2.55  35 2.57  50 2.59  40 2.68  71 2.72  72 2.76
                            47 2.78
  37  0.626  0.214  0.133-  68 2.52  59 2.52  67 2.52  41 2.56  51 2.57  56 2.58  66 2.59  20 2.59
                            74 2.60  62 2.60  57 2.64  48 2.76
  38  0.376  0.961  0.131-  80 2.47  53 2.51  55 2.53  78 2.53  63 2.53  45 2.55  54 2.58  48 2.61
                            57 2.62  24 2.67  70 2.69  73 2.69
  39  0.041  0.378  0.321-  33 2.59  22 2.59   3 2.60  42 2.60  29 2.61  75 2.63  31 2.66  65 2.66
                             7 2.70  43 2.70  10 2.73   5 2.79
  40  0.040  0.377  0.033-  69 2.55  21 2.58  23 2.59  76 2.61  70 2.61  45 2.66  71 2.67  36 2.68
                            47 2.81
  41  0.868  0.215  0.131-  67 2.47  65 2.53  76 2.53  77 2.53  37 2.56  51 2.56  62 2.57  69 2.59
                            23 2.60  70 2.61  66 2.63  24 2.74
  42  0.960  0.545  0.225-  33 2.57  29 2.59  39 2.60  50 2.61  32 2.61  21 2.61  28 2.64  64 2.65
                            69 2.68  65 2.69  49 2.70  31 2.71
  43  0.293  0.119  0.319-  52 2.54  55 2.57  22 2.59  19 2.59  31 2.61  61 2.61   8 2.62  80 2.64
                             3 2.68  39 2.70  10 2.73  13 2.97
  44  0.541  0.630  0.321-  61 2.56  52 2.56  29 2.60  30 2.61  78 2.64  18 2.68  27 2.70  26 2.70
                            75 2.73  32 2.74  15 2.76  14 2.76
  45  0.292  0.126  0.037-  38 2.55  57 2.57  70 2.59  40 2.66  53 2.66  20 2.68  23 2.70  47 2.70
                            63 2.74
  46  0.545  0.626  0.042-  73 2.43  51 2.44  54 2.47  71 2.53  53 2.54  76 2.54  63 2.55  72 2.56
                            56 2.56
  47  0.307  0.374  0.039-  74 2.45  57 2.52  56 2.54  21 2.57  20 2.60  72 2.62  45 2.70  36 2.78
                            40 2.81
  48  0.628  0.952  0.133-  49 2.43  80 2.48  59 2.50  63 2.52  50 2.54  54 2.54  20 2.60  34 2.61
                            66 2.61  38 2.61  57 2.66  37 2.76
  49  0.701  0.798  0.223-  48 2.43  54 2.51  80 2.51  61 2.55  78 2.56   1 2.57  50 2.57  59 2.60
                            29 2.66  32 2.68  42 2.70  28 2.75
  50  0.866  0.710  0.128-  71 2.42  34 2.48  48 2.54  28 2.56  49 2.57  54 2.58  36 2.59  42 2.61
                            69 2.64  21 2.67  66 2.71  58 2.84
[...]

  length of vectors
    10.560000420 10.560000420 22.000000000     0.109346638  0.109346638  0.045454545

 FORCES acting on ions
    electron-ion (+dipol)            ewald-force                    non-local-force                 convergence-correction
   -.328E+02 -.737E+02 -.145E+04   0.318E+02 0.747E+02 0.145E+04   0.110E+01 -.981E+00 0.231E+01   0.433E-03 0.247E-03 0.328E-03
   0.563E+02 -.189E+02 -.142E+04   -.560E+02 0.196E+02 0.141E+04   -.316E+00 -.678E+00 0.268E+01   -.574E-04 0.132E-03 0.168E-03
   -.115E+03 0.101E+02 -.147E+04   0.115E+03 -.104E+02 0.146E+04   0.263E+00 0.227E+00 0.272E+01   0.533E-03 0.156E-03 0.117E-03
   0.245E+01 -.177E+02 -.286E+04   -.235E+01 0.178E+02 0.286E+04   -.937E-01 -.403E-01 0.109E+01   0.193E-04 -.733E-04 -.813E-03
   -.213E+02 -.921E+01 -.295E+04   0.214E+02 0.891E+01 0.295E+04   -.151E+00 0.353E+00 0.104E+01   0.475E-03 0.225E-03 -.639E-03
   0.357E+02 -.447E+01 -.288E+04   -.357E+02 0.430E+01 0.288E+04   -.292E-01 0.136E+00 0.905E+00   -.392E-03 -.332E-03 -.847E-03
   0.307E+02 0.216E+01 -.292E+04   -.307E+02 -.231E+01 0.292E+04   -.198E-01 0.872E-01 0.112E+01   0.117E-03 0.547E-04 -.363E-03
   -.191E+02 0.485E+01 -.286E+04   0.184E+02 -.552E+01 0.286E+04   0.772E+00 0.743E+00 0.213E+01   -.125E-03 -.319E-04 -.596E-03
   0.223E+02 0.234E+02 -.288E+04   -.226E+02 -.231E+02 0.288E+04   0.246E+00 -.291E+00 0.162E+01   -.395E-03 -.634E-03 -.514E-03
   0.262E+02 0.182E+02 -.292E+04   -.262E+02 -.182E+02 0.292E+04   0.127E+00 -.223E-01 0.676E+00   0.620E-04 -.283E-03 -.567E-03
   -.325E+02 0.702E+01 -.288E+04   0.323E+02 -.695E+01 0.288E+04   0.197E+00 -.778E-01 -.594E+00   0.454E-03 0.251E-03 -.705E-03
   0.274E+01 -.379E+02 -.291E+04   -.273E+01 0.378E+02 0.291E+04   0.234E-01 0.662E-01 0.910E+00   0.462E-03 0.526E-03 -.660E-03
   -.301E+02 -.132E+02 -.293E+04   0.301E+02 0.131E+02 0.293E+04   0.506E-02 0.302E-01 -.730E+00   0.415E-03 0.430E-04 -.727E-03
   0.247E+02 0.190E+01 -.295E+04   -.246E+02 -.201E+01 0.295E+04   -.556E-01 0.116E+00 0.952E+00   -.473E-03 0.173E-04 -.807E-03
   0.125E+02 0.334E+02 -.290E+04   -.124E+02 -.334E+02 0.290E+04   -.856E-01 0.151E-01 0.104E+01   -.582E-03 -.131E-03 -.509E-03
   -.693E+01 -.251E+02 -.290E+04   0.699E+01 0.250E+02 0.290E+04   -.785E-01 0.150E+00 0.790E+00   0.647E-04 0.254E-03 -.859E-03
   0.221E+01 0.110E+02 -.283E+04   -.126E+01 -.107E+02 0.283E+04   -.984E+00 -.312E+00 0.149E+01   -.105E-03 -.241E-03 -.663E-03
   0.503E+02 0.485E+02 -.141E+04   -.486E+02 -.496E+02 0.141E+04   -.170E+01 0.111E+01 0.276E+01   -.644E-03 -.515E-04 0.100E-03
   -.849E+02 -.356E+02 -.144E+04   0.845E+02 0.346E+02 0.143E+04   0.328E+00 0.101E+01 0.376E+01   0.292E-03 0.184E-03 0.296E-03
   -.227E+02 -.238E+02 0.300E+04   0.228E+02 0.241E+02 -.299E+04   -.197E-01 -.280E+00 -.197E+01   0.577E-03 0.293E-03 0.620E-03
   -.733E+02 0.226E+02 0.148E+04   0.739E+02 -.222E+02 -.148E+04   -.577E+00 -.329E+00 -.991E-01   0.932E-03 0.190E-03 0.928E-03
   0.998E+02 0.263E+02 -.140E+04   -.100E+03 -.251E+02 0.139E+04   0.606E+00 -.114E+01 0.322E+01   -.317E-03 -.919E-03 0.353E-04
   0.349E+02 0.500E+02 0.303E+04   -.355E+02 -.488E+02 -.303E+04   0.663E+00 -.119E+01 -.216E+01   -.218E-03 -.719E-03 0.226E-03
   0.908E+02 0.300E+01 0.147E+04   -.910E+02 -.426E+01 -.147E+04   0.958E-01 0.126E+01 -.116E+01   -.234E-03 -.107E-03 0.114E-02
   -.184E+02 0.188E+02 -.288E+04   0.182E+02 -.185E+02 0.288E+04   0.268E+00 -.242E+00 0.706E+00   -.142E-04 0.438E-04 -.789E-03
   0.539E+02 0.631E+02 0.228E+02   -.550E+02 -.632E+02 -.244E+02   0.109E+01 -.506E-01 0.169E+01   -.214E-03 -.229E-03 0.450E-04
   -.227E+02 -.143E+02 -.291E+04   0.224E+02 0.144E+02 0.291E+04   0.318E+00 -.588E-01 0.118E+01   -.569E-04 0.263E-03 -.523E-03
   -.626E+02 -.410E+02 0.112E+03   0.630E+02 0.410E+02 -.114E+03   -.437E+00 -.791E-01 0.176E+01   0.238E-03 0.624E-03 0.123E-02
   0.166E+02 -.427E+02 -.149E+04   -.169E+02 0.427E+02 0.149E+04   0.407E+00 -.294E-01 0.233E+01   0.186E-03 0.593E-03 0.174E-03
   0.363E+02 0.573E+02 -.145E+04   -.364E+02 -.565E+02 0.145E+04   0.814E-01 -.730E+00 0.274E+01   -.120E-03 0.109E-03 0.178E-03
   -.836E+02 -.496E+02 0.770E+02   0.838E+02 0.488E+02 -.779E+02   -.145E+00 0.713E+00 0.109E+01   0.706E-03 -.386E-04 0.106E-02
   0.478E+02 0.514E+02 0.126E+02   -.471E+02 -.525E+02 -.134E+02   -.804E+00 0.106E+01 0.862E+00   -.101E-02 0.574E-03 0.387E-03
   -.738E+02 -.723E+02 -.162E+04   0.738E+02 0.719E+02 0.162E+04   0.674E-01 0.487E+00 0.102E+01   0.616E-03 0.518E-03 0.375E-03
   0.102E+02 -.908E+02 0.332E+04   -.106E+02 0.908E+02 -.331E+04   0.326E+00 0.130E-01 -.237E+01   0.435E-03 0.559E-04 0.411E-03
   -.328E+02 -.507E+02 0.328E+04   0.322E+02 0.504E+02 -.328E+04   0.697E+00 0.418E+00 -.292E+01   0.162E-04 0.527E-04 0.180E-03
   -.547E+02 0.439E+02 0.331E+04   0.549E+02 -.436E+02 -.331E+04   -.162E+00 -.313E+00 -.357E+01   0.102E-03 0.361E-03 0.811E-04
   0.524E+02 0.291E+02 0.158E+04   -.523E+02 -.291E+02 -.158E+04   -.754E-01 -.623E-02 -.137E+01   0.265E-04 0.847E-03 0.980E-03
   0.212E+02 -.667E+02 0.167E+04   -.206E+02 0.664E+02 -.167E+04   -.637E+00 0.155E+00 -.907E+00   -.162E-03 -.538E-03 0.145E-02
   0.102E+02 0.188E+02 -.162E+04   -.105E+02 -.192E+02 0.162E+04   0.372E+00 0.345E+00 0.118E+01   0.518E-03 -.944E-04 0.388E-03
   -.320E+02 0.374E+01 0.335E+04   0.305E+02 -.408E+01 -.335E+04   0.153E+01 0.367E+00 -.329E+01   0.465E-03 0.164E-03 -.307E-03
   0.407E+01 0.818E+02 0.162E+04   -.437E+01 -.815E+02 -.162E+04   0.353E+00 -.403E+00 -.115E+01   -.119E-02 -.692E-03 0.139E-02
   -.589E+02 0.171E+02 0.389E+02   0.587E+02 -.167E+02 -.391E+02   0.134E+00 -.394E+00 0.701E-02   0.466E-03 0.625E-03 0.123E-02
   -.815E+02 -.421E+02 -.164E+04   0.816E+02 0.415E+02 0.164E+04   -.231E-01 0.691E+00 0.163E+01   0.874E-04 -.206E-03 0.267E-03
   0.130E+02 0.724E+02 -.163E+04   -.130E+02 -.715E+02 0.163E+04   -.589E-01 -.948E+00 0.905E+00   -.716E-03 0.368E-03 -.126E-03
   -.375E+02 -.253E+01 0.330E+04   0.380E+02 0.205E+01 -.330E+04   -.448E+00 0.468E+00 -.279E+01   -.229E-04 -.158E-03 0.167E-03
   0.206E+02 0.216E+02 0.304E+04   -.205E+02 -.215E+02 -.304E+04   -.126E+00 -.124E+00 -.593E+00   -.693E-03 -.253E-03 0.105E-02
   -.198E+02 0.587E+01 0.297E+04   0.215E+02 -.596E+01 -.297E+04   -.165E+01 0.880E-01 -.216E+01   0.759E-03 0.350E-03 0.725E-03
   -.670E+02 -.116E+03 0.148E+04   0.670E+02 0.115E+03 -.148E+04   -.797E-01 0.524E+00 -.938E+00   0.307E-03 -.409E-05 0.117E-02
   -.693E+02 -.188E+02 -.556E+02   0.687E+02 0.194E+02 0.550E+02   0.732E+00 -.696E+00 0.634E+00   -.176E-03 0.249E-03 0.736E-03
   -.111E+03 -.827E+00 0.148E+04   0.111E+03 0.122E+01 -.148E+04   0.364E-01 -.425E+00 -.447E+00   -.113E-03 0.632E-03 0.722E-03
   0.427E+02 0.332E+02 0.148E+04   -.426E+02 -.328E+02 -.148E+04   -.569E-01 -.366E+00 0.301E-01   -.140E-02 0.204E-03 0.122E-02
   0.739E+02 0.231E+02 -.147E+04   -.736E+02 -.232E+02 0.147E+04   -.454E+00 0.192E+00 0.161E+01   -.370E-03 -.169E-03 0.231E-04
   0.457E+02 -.350E+02 0.303E+04   -.449E+02 0.337E+02 -.303E+04   -.837E+00 0.129E+01 -.199E+01   -.512E-03 -.301E-03 0.361E-03
   0.171E+02 0.356E+02 0.146E+04   -.167E+02 -.355E+02 -.146E+04   -.438E+00 -.167E+00 -.375E+00   -.516E-03 -.131E-03 0.133E-02
   0.792E+02 -.499E+02 0.418E+02   -.790E+02 0.495E+02 -.417E+02   -.183E+00 0.324E+00 -.172E+00   -.310E-03 -.666E-03 0.108E-02
   0.882E+01 0.565E+02 0.244E+04   -.851E+01 -.560E+02 -.244E+04   -.325E+00 -.520E+00 -.280E+01   -.222E-03 0.201E-03 0.107E-02
   -.202E+02 -.502E+02 0.116E+04   0.202E+02 0.506E+02 -.116E+04   -.840E-01 -.332E+00 -.757E+00   0.660E-03 0.242E-03 0.886E-03
   0.219E+02 -.149E+02 0.117E+04   -.215E+02 0.146E+02 -.117E+04   -.413E+00 0.360E+00 -.725E+00   0.426E-03 -.179E-03 0.663E-03
   -.509E+02 -.442E+02 -.263E+02   0.511E+02 0.445E+02 0.260E+02   -.244E+00 -.426E+00 0.370E+00   0.314E-03 0.679E-04 0.691E-03
   0.442E+02 0.148E+02 -.118E+04   -.440E+02 -.146E+02 0.118E+04   -.178E+00 -.218E+00 0.112E+01   -.613E-04 -.543E-03 0.103E-03
[...]
   -.248E+01 -.118E+02 -.114E+02   0.261E+01 0.113E+02 0.110E+02   -.150E+00 0.367E+00 0.456E+00   0.235E-03 0.411E-03 0.405E-03
   -.409E+02 0.287E+02 0.135E+04   0.409E+02 -.286E+02 -.135E+04   0.211E-01 -.213E-01 -.964E-01   -.556E-03 0.563E-03 0.792E-03
   -.241E+02 -.755E+01 0.133E+04   0.244E+02 0.809E+01 -.133E+04   -.241E+00 -.551E+00 -.973E+00   0.975E-04 -.644E-03 0.837E-03
   -.680E+01 -.100E+01 0.272E+04   0.563E+01 0.151E+01 -.271E+04   0.112E+01 -.481E+00 -.241E+01   0.199E-03 0.497E-03 0.116E-03
   0.349E+02 0.199E+02 0.269E+04   -.340E+02 -.202E+02 -.269E+04   -.830E+00 0.341E+00 -.278E+01   0.299E-03 -.259E-03 0.581E-03
   0.715E+02 0.294E+01 0.132E+04   -.718E+02 -.314E+01 -.132E+04   0.269E+00 0.244E+00 -.216E-02   0.199E-03 -.771E-03 0.942E-03
   0.642E+02 0.296E+02 0.130E+04   -.644E+02 -.295E+02 -.130E+04   0.220E+00 -.117E+00 -.941E-01   0.904E-03 -.102E-03 0.102E-02
   0.561E+02 0.292E+02 -.129E+04   -.563E+02 -.297E+02 0.129E+04   0.297E+00 0.541E+00 0.120E+01   -.347E-03 -.300E-03 0.200E-03
   0.499E+02 0.557E+02 0.274E+04   -.506E+02 -.552E+02 -.274E+04   0.651E+00 -.555E+00 -.181E+01   -.830E-03 0.771E-04 0.453E-03
   0.502E+02 0.308E+02 -.184E+01   -.508E+02 -.303E+02 0.182E+01   0.607E+00 -.585E+00 -.313E-01   -.114E-03 -.384E-03 0.873E-03
   0.212E+02 0.758E+02 -.150E+02   -.211E+02 -.748E+02 0.153E+02   -.357E-01 -.104E+01 -.417E+00   -.173E-03 -.186E-03 0.553E-03
   0.102E+03 0.464E+02 0.319E+02   -.101E+03 -.462E+02 -.321E+02   -.588E+00 -.260E+00 0.979E-01   0.922E-04 0.936E-04 0.104E-02
   -.796E+02 -.108E+03 0.909E+01   0.800E+02 0.108E+03 -.925E+01   -.433E+00 0.358E+00 0.138E+00   0.105E-03 -.222E-03 0.799E-03
   0.193E+00 0.308E+01 -.346E+03   -.262E+00 -.322E+01 0.348E+03   0.885E-01 0.144E+00 -.195E+01   0.317E-04 0.537E-05 -.138E-03
   -.418E+00 -.868E+00 -.112E+01   0.407E-12 -.431E-12 0.116E-10   0.428E+00 0.862E+00 0.110E+01   -.475E-03 -.271E-03 0.268E-01

 POSITION                                       TOTAL-FORCE (eV/Angst)
     12.95799      8.01025      6.97574         0.006736      0.005637     -0.000435
      5.11766      8.05140      6.95411         0.006857      0.025185     -0.004703
      5.02800      3.43228      7.06624        -0.000168      0.009933     -0.005860
     14.32918      8.74793      9.32905         0.007167      0.009993      0.002527
      3.75057      4.17998      9.39622        -0.009394      0.011556     -0.003836
      6.41530      8.76141      9.28342         0.016925      0.005198     -0.000415
     11.68306      4.17933      9.29534        -0.004580     -0.008484      0.000007
      9.02301      8.74275      9.17933         0.029852      0.010126      0.004345
     10.36240      1.90796      9.29072         0.004734     -0.006924     -0.003045
      2.43925      1.89880      9.29568         0.005473      0.006276     -0.015000
     11.68025      8.74872      9.46964        -0.000847      0.004300     -0.022329
     12.99660      6.46158      9.35773         0.009371     -0.000947     -0.004349
      5.05944      1.91228      9.54818         0.013139      0.011526     -0.027524
      7.72824      6.47619      9.38940         0.011762      0.006939     -0.004284
      9.05147      4.19470      9.33658        -0.006402      0.005087     -0.000405
      5.07691      6.47080      9.34977         0.006371     -0.003597      0.005972
      7.74221      1.90765      9.31908         0.011525      0.014592      0.002596
      7.80605      3.38020      6.98592         0.007096      0.000817      0.000325
      6.31642      1.09831      6.94762        -0.001833      0.011966      0.005238
      6.42748      1.11951      0.84379        -0.001157      0.034051      0.009061
      3.74457      4.22498      2.80295         0.002059      0.010159     -0.028125
      1.13454      1.22115      6.89190         0.007175      0.005446      0.001027
      1.05351      1.23301      0.75714        -0.004409      0.008850      0.004505
      6.37970      8.73232      2.89580         0.000106      0.009866      0.016959
      6.40213      4.20352      9.39499         0.017867      0.007142     -0.000784
      7.71519      4.98986      4.84188        -0.012450     -0.047969      0.002919
     10.34421      6.47325      9.31738        -0.002131      0.016831     -0.014211
     14.36690      7.24966      4.78751        -0.045494      0.002679     -0.082554
     11.63206      5.68874      7.01631         0.010819      0.006002     -0.022566
      6.42762      5.76145      7.02326         0.000445      0.004315     -0.000213
      3.72880      2.59487      4.89932         0.062023      0.005361      0.049827
     10.40714      4.90964      4.85294         0.004178     -0.000866      0.009270
      3.72996      5.69905      7.05699         0.006133      0.007240      0.005133
     13.01076      7.95414      0.82285        -0.015229      0.027081     -0.010435
      5.07062      7.97664      0.75916        -0.003087      0.017018     -0.002567
      3.74725      5.77233      0.77268         0.004386      0.004730     -0.010064
      7.73906      1.95923      2.91892         0.011151      0.004046     -0.010686
      9.04575      8.78897      2.87226        -0.002683     -0.010103      0.005329
      2.43067      3.45869      7.05144         0.006290      0.003928     -0.006695
      2.40788      3.44595      0.73676        -0.003513      0.022677     -0.002232
     10.29842      1.96823      2.88139         0.023767     -0.006808     -0.007021
     13.01351      4.98805      4.94410         0.015393     -0.020391     -0.026279
      3.72265      1.09036      7.02684         0.003736      0.001962      0.005650
      9.03571      5.75772      7.06790         0.002792      0.006160     -0.012400
      3.74683      1.15285      0.81959         0.001289      0.002742      0.007356
      9.06513      5.72471      0.92537        -0.014522      0.023353     -0.001539
      5.21212      3.41637      0.86086        -0.011588      0.005807     -0.011913
     11.65625      8.70496      2.91787        -0.018035     -0.014995      0.013197
     11.62151      7.29974      4.90178         0.061725     -0.000969      0.027316
     12.89980      6.49745      2.82364         0.014527     -0.011971     -0.003660
      9.01343      4.18612      2.81919         0.008100      0.018515     -0.015477
      7.79817      7.99843      6.94916        -0.018196     -0.000065      0.016623
      7.81053      7.92859      0.86888        -0.018854     -0.002213      0.011899
     10.31657      6.54831      2.89472         0.013605     -0.003154     -0.011239
      2.46166      0.31661      4.92733        -0.007967     -0.036549     -0.038822
      7.75154      3.52543      0.86333         0.000439      0.003856      0.006743
      5.10291      1.89984      2.87069        -0.001833      0.022308      0.000639
      5.17349      6.40557      2.77226        -0.014098      0.020305      0.036407
      7.65418      0.39388      4.89233        -0.039595     -0.039768      0.111032
      9.05598      1.14129      7.11191         0.002646      0.004859     -0.013384
[...]
      9.09183      2.62352      4.93970        -0.013251     -0.018685      0.002555
      6.39598      2.67997      4.92292        -0.023382     -0.083923      0.084138
     11.64052      4.17844      2.78900        -0.015724      0.013074      0.009616
      2.34972      1.92500      2.86197         0.003173      0.007488     -0.021739
     11.59075      5.72177      0.94802        -0.025531      0.004476     -0.007570
      6.50379      5.69604      0.91052        -0.002542      0.010131     -0.001551
      7.71278      6.45493      2.81038        -0.010055      0.013887      0.045445
      6.43155      4.20716      2.83788         0.011263     -0.014670      0.001217
     10.35898      3.37336      7.00354         0.001855      0.011770      0.026013
     10.36553      3.54396      0.90454        -0.019431      0.002809     -0.020804
     10.23662      0.46679      4.91587        -0.044483     -0.039788      0.017604
      9.06408      7.34028      4.95059         0.005626     -0.041637     -0.032838
      6.48344      7.27349      4.94428         0.018749     -0.051403     -0.038323
      5.04827      0.31035      4.87551         0.018680      0.011753      0.035094
      5.65717      0.68365     10.64490         0.016865      0.002066     -0.040716
    total drift:                                0.009521     -0.006040      0.006713

  FREE ENERGIE OF THE ION-ELECTRON SYSTEM (eV)
  free  energy   TOTEN  =      -514.86077736 eV

  energy  without entropy=     -514.86252529  energy(sigma->0) =     -514.86136000

 reached required accuracy - stopping structural energy minimisation