 vasp.5.4.4.18Apr17-6-g9f103f2a35 (build Nov 06 2019 15:09:28) complex

 executed on             LinuxIFC date 2023.08.07  10:54:27

 INCAR:
 POTCAR:    PAW_PBE Pt 04Feb2005
 POTCAR:    PAW_PBE H 15Jun2001
 POTCAR:    PAW_PBE Pt 04Feb2005
   VRHFIN =Pt: s1d9

   TITEL  = PAW_PBE Pt 04Feb2005
   POMASS =  195.080; ZVAL   =   10.000    mass and valenz
   ENMAX  =  230.283; ENMIN  =  172.712 eV

 POTCAR:    PAW_PBE H 15Jun2001
   VRHFIN =H: ultrasoft test

   TITEL  = PAW_PBE H 15Jun2001
   POMASS =    1.000; ZVAL   =    1.000    mass and valenz
   ENMAX  =  250.000; ENMIN  =  200.000 eV

 Optimization of the real space projectors (new method)

 maximal supplied QI-value         = 14.36
 optimisation between [QCUT,QGAM] = [ 11.92, 23.98] = [ 39.79,161.09] Ry
 Optimized for a Real-space Cutoff    1.49 Angstroem

   l    n(q)    QCUT    max X(q) W(low)/X(q) W(high)/X(q)  e(spline)
   2     10    11.920    66.195    0.79E-04    0.18E-03    0.24E-06
   2     10    11.920    64.643    0.81E-04    0.19E-03    0.24E-06
   0     11    11.920    95.520    0.28E-04    0.54E-04    0.18E-06
   0     11    11.920    63.403    0.27E-04    0.52E-04    0.17E-06
   1     10    11.920    19.961    0.18E-04    0.11E-03    0.23E-06
   1     10    11.920    13.289    0.25E-04    0.87E-04    0.19E-06
 Optimization of the real space projectors (new method)

 maximal supplied QI-value         = 34.20
 optimisation between [QCUT,QGAM] = [ 11.97, 23.94] = [ 40.13,160.53] Ry
 Optimized for a Real-space Cutoff    1.18 Angstroem

   l    n(q)    QCUT    max X(q) W(low)/X(q) W(high)/X(q)  e(spline)
   0      8    11.971    19.460    0.15E-03    0.31E-03    0.25E-06
   0      8    11.971    12.209    0.13E-03    0.29E-03    0.25E-06
   1      8    11.971     4.655    0.22E-03    0.24E-03    0.21E-06
  PAW_PBE Pt 04Feb2005                  :
  PAW_PBE H 15Jun2001                   :

 POSCAR: Pt   H
  positions in cartesian coordinates
 exchange correlation table for  LEXCH =        8
   RHO(1)=    0.500       N(1)  =     2000
   RHO(2)=  100.500       N(2)  =     4000

 VTST: version 3.2, (02/03/18)

 CHAIN: initializing optimizer

 OPT: Using VASP QUASI-newton optimizer
 CHAIN: Read ICHAIN            0
 CHAIN: Running the NEB
 NEB:          SPRING     -5.000000
 NEB:          LCLIMB      T
 NEB:     LTANGENTOLD      F
 NEB:           LDNEB      F
 NEB:        LDNEBORG      F
 NEB:        LNEBCELL      F
 NEB:          EFIRST      0.000000
 NEB:           ELAST      0.000000

 POSCAR: Pt   H
  positions in cartesian coordinates

 POSCAR: Pt111\(1\1\1)\(2)
  positions in cartesian coordinates

 ion  position               nearest neighbor table
   1  1.000  0.000  0.056-   5 2.64   9 2.64  13 2.64  29 2.64  57 2.64  37 2.64  42 2.87  14 2.87
                            54 2.87
   2  0.333  0.167  0.178-  30 2.64  26 2.64  38 2.64  42 2.64  14 2.64   6 2.64  11 2.84   7 2.85
                            15 2.85   9 2.87  21 2.87  13 2.87
   3  0.167  0.334  0.298-  15 2.64   7 2.64  43 2.64  31 2.64  39 2.64  27 2.64  10 2.85   6 2.85
                            14 2.85   8 2.86  48 2.87  12 2.88
   4  1.000  0.000  0.419-  60 2.64  12 2.64  32 2.64  40 2.64   8 2.64  16 2.64   7 2.87  27 2.87
                            63 2.88
   5  1.000  0.250  0.056-   1 2.64  45 2.64  33 2.64   9 2.64  29 2.64  25 2.64  14 2.87  10 2.87
                            18 2.87
   6  0.333  0.417  0.178-  26 2.64  62 2.64  10 2.64  34 2.64  14 2.64   2 2.64   3 2.85  15 2.85
                            43 2.85  45 2.87  49 2.87   9 2.87
   7  0.167  0.084  0.298-   3 2.64  15 2.64  11 2.64  35 2.64  27 2.64  63 2.64  14 2.85   2 2.85
                            42 2.85   4 2.87  16 2.87  12 2.87
   8  1.000  0.250  0.419-  28 2.64  32 2.64  12 2.64  36 2.64   4 2.64  48 2.64   3 2.86  31 2.86
                            27 2.86
   9  0.250  0.250  0.056-  21 2.64  13 2.64   1 2.64  49 2.64  45 2.64   5 2.64   2 2.87  14 2.87
                             6 2.87
  10  0.083  0.417  0.178-  34 2.64   6 2.64  46 2.64  14 2.64  18 2.64  22 2.64  39 2.84  31 2.84
                             3 2.85  33 2.87  45 2.87   5 2.87
  11  0.417  0.083  0.297-  35 2.64   7 2.64  47 2.64  23 2.64  19 2.64  15 2.64   2 2.84  30 2.84
                            38 2.84  24 2.86  20 2.88  16 2.88
  12  0.249  0.250  0.420-   4 2.64   8 2.64  16 2.64  48 2.64  24 2.65  52 2.65   7 2.87   3 2.88
                            15 2.88
  13  0.250  0.000  0.056-  21 2.64   9 2.64  17 2.64   1 2.64  37 2.64  41 2.64  38 2.87   2 2.87
                            42 2.87
  14  0.083  0.167  0.178-  42 2.64  54 2.64   6 2.64   2 2.64  10 2.64  18 2.64  27 2.84   3 2.85
                             7 2.85   5 2.87   1 2.87   9 2.87
  15  0.417  0.334  0.298-   3 2.64  43 2.64   7 2.64  55 2.64  19 2.64  11 2.64   6 2.85  24 2.85
                            26 2.85   2 2.85  52 2.88  12 2.88
  16  0.250  0.000  0.419-  44 2.64  20 2.64  40 2.64  24 2.64  12 2.64   4 2.64   7 2.87  35 2.88
                            11 2.88
  17  0.500  0.000  0.056-  29 2.64  25 2.64  13 2.64  21 2.64  41 2.64  53 2.64  58 2.87  30 2.87
                            38 2.87
  18  0.833  0.167  0.178-  54 2.64  58 2.64  22 2.64  10 2.64  30 2.64  14 2.64  27 2.84  31 2.84
                            23 2.85  25 2.87  29 2.87   5 2.87
  19  0.667  0.334  0.297-  59 2.64  55 2.64  31 2.64  23 2.64  11 2.64  15 2.64  26 2.84  22 2.84
                            30 2.84  24 2.86  28 2.88  64 2.88
  20  0.500  0.000  0.419-  56 2.64  24 2.64  32 2.64  16 2.64  44 2.64  28 2.64  23 2.87  47 2.88
                            11 2.88
  21  0.500  0.250  0.056-  25 2.64  61 2.64   9 2.64  13 2.64  49 2.64  17 2.64  30 2.87   2 2.87
                            26 2.87
  22  0.833  0.417  0.178-  50 2.64  26 2.64  30 2.64  18 2.64  46 2.64  10 2.64  19 2.84  59 2.84
                            31 2.84  61 2.87  25 2.87  33 2.87
  23  0.667  0.084  0.298-  27 2.64  51 2.64  31 2.64  47 2.64  19 2.64  11 2.64  30 2.84  18 2.85
                            58 2.85  20 2.87  28 2.87  32 2.87
  24  0.500  0.250  0.418-  28 2.64  20 2.64  16 2.64  64 2.64  52 2.65  12 2.65  15 2.85  19 2.86
                            11 2.86
  25  0.750  0.250  0.056-  17 2.64  21 2.64  29 2.64  61 2.64  33 2.64   5 2.64  18 2.87  22 2.87
                            30 2.87
  26  0.583  0.417  0.178-   6 2.64   2 2.64  22 2.64  30 2.64  62 2.64  50 2.64  19 2.84  15 2.85
                            55 2.85  49 2.87  61 2.87  21 2.87
  27  0.917  0.083  0.297-  63 2.64  51 2.64  23 2.64  31 2.64   7 2.64   3 2.64  18 2.84  14 2.84
                            54 2.84   8 2.86   4 2.87  32 2.88
  28  0.750  0.250  0.419-   8 2.64  24 2.64  32 2.64  64 2.64  36 2.64  20 2.64  23 2.87  31 2.88
                            19 2.88
  29  0.750  0.000  0.056-  17 2.64  25 2.64   5 2.64  53 2.64   1 2.64  57 2.64  54 2.87  18 2.87
                            58 2.87
  30  0.583  0.167  0.178-   2 2.64  38 2.64  58 2.64  26 2.64  22 2.64  18 2.64  11 2.84  19 2.84
                            23 2.84  21 2.87  17 2.87  25 2.87
  31  0.917  0.334  0.297-  19 2.64  59 2.64  23 2.64  39 2.64  27 2.64   3 2.64  22 2.84  10 2.84
                            18 2.84   8 2.86  36 2.87  28 2.88
  32  0.750  0.000  0.420-  56 2.64   8 2.64  28 2.64  20 2.64   4 2.64  60 2.64  23 2.87  51 2.88
                            27 2.88
  33  1.000  0.500  0.056-  37 2.64  41 2.64   5 2.64  45 2.64  25 2.64  61 2.64  10 2.87  46 2.87
                            22 2.87
  34  0.333  0.667  0.178-  62 2.64  10 2.64  58 2.64  46 2.64   6 2.64  38 2.64  39 2.84  47 2.84
                            43 2.85  41 2.87  45 2.87  53 2.87
  35  0.167  0.834  0.297-  11 2.64  47 2.64   7 2.64  39 2.64  63 2.64  59 2.64  42 2.84  38 2.84
                            46 2.84  40 2.86  44 2.87  16 2.88
  36  1.000  0.500  0.419-  48 2.64  64 2.64  40 2.64  44 2.64  28 2.64   8 2.64  31 2.87  59 2.87
                            39 2.87
  37  1.000  0.750  0.056-  33 2.64  41 2.64  61 2.64  57 2.64  13 2.64   1 2.64  46 2.87  50 2.87
                            42 2.87
  38  0.333  0.917  0.178-  58 2.64  30 2.64   2 2.64  42 2.64  34 2.64  46 2.64  35 2.84  11 2.84
                            47 2.84  13 2.87  17 2.87  41 2.87
  39  0.167  0.584  0.297-  47 2.64  31 2.64  43 2.64   3 2.64  35 2.64  59 2.64  46 2.84  34 2.84
                            10 2.84  48 2.87  36 2.87  44 2.88
  40  1.000  0.750  0.418-  60 2.64  36 2.64   4 2.64  44 2.64  64 2.64  16 2.64  35 2.86  59 2.86
                            63 2.86
  41  0.250  0.750  0.056-  45 2.64  33 2.64  37 2.64  53 2.64  17 2.64  13 2.64  34 2.87  46 2.87
                            38 2.87
  42  0.083  0.917  0.178-  14 2.64   2 2.64  38 2.64  46 2.64  50 2.64  54 2.64  35 2.84  63 2.84
                             7 2.85   1 2.87  13 2.87  37 2.87
  43  0.417  0.584  0.298-  15 2.64  55 2.64  47 2.64   3 2.64  51 2.64  39 2.64  34 2.85  62 2.85
                             6 2.85  56 2.86  48 2.87  52 2.88
  44  0.250  0.750  0.419-  48 2.64  16 2.64  40 2.64  36 2.64  20 2.64  56 2.64  47 2.87  35 2.87
                            39 2.88
  45  0.250  0.500  0.056-  41 2.64  53 2.64   5 2.64   9 2.64  49 2.64  33 2.64   6 2.87  10 2.87
                            34 2.87
  46  0.083  0.667  0.178-  34 2.64  50 2.64  10 2.64  42 2.64  22 2.64  38 2.64  39 2.84  59 2.84
                            35 2.84  37 2.87  33 2.87  41 2.87
  47  0.417  0.834  0.297-  11 2.64  39 2.64  35 2.64  23 2.64  43 2.64  51 2.64  38 2.84  58 2.84
                            34 2.84  56 2.86  44 2.87  20 2.88
  48  0.250  0.500  0.419-  36 2.64  44 2.64   8 2.64  56 2.64  52 2.64  12 2.64   3 2.87  43 2.87
                            39 2.87
  49  0.500  0.500  0.056-  61 2.64  53 2.64  57 2.64  21 2.64   9 2.64  45 2.64  26 2.87   6 2.87
                            62 2.87
  50  0.833  0.667  0.178-  22 2.64  46 2.64  26 2.64  42 2.64  54 2.64  62 2.64  59 2.84  63 2.84
                            55 2.85  57 2.87  61 2.87  37 2.87
  51  0.667  0.834  0.297-  63 2.64  27 2.64  23 2.64  43 2.64  47 2.64  55 2.64  58 2.84  54 2.84
                            62 2.84  56 2.86  60 2.87  32 2.88
  52  0.500  0.501  0.420-  60 2.64  56 2.64  64 2.64  48 2.64  24 2.65  12 2.65  55 2.87  43 2.88
                            15 2.88
  53  0.500  0.750  0.056-  49 2.64  57 2.64  45 2.64  41 2.64  29 2.64  17 2.64  62 2.87  34 2.87
                            58 2.87
  54  0.833  0.917  0.178-  18 2.64  14 2.64  50 2.64  58 2.64  42 2.64  62 2.64  63 2.83  51 2.84
                            27 2.84  29 2.87   1 2.87  57 2.87
  55  0.666  0.583  0.298-  43 2.64  15 2.64  19 2.64  59 2.64  51 2.64  63 2.64  62 2.85  26 2.85
                            50 2.85  64 2.87  60 2.87  52 2.87
  56  0.500  0.751  0.419-  20 2.64  32 2.64  52 2.64  44 2.64  60 2.64  48 2.64  43 2.86  47 2.86
                            51 2.86
  57  0.750  0.750  0.056-  61 2.64  49 2.64  53 2.64  37 2.64   1 2.64  29 2.64  50 2.87  62 2.87
                            54 2.87
[...]
   0.330E+00 0.309E+00 0.782E+03   -.344E+00 -.296E+00 -.781E+03   -.796E-02 0.409E-03 -.420E+00   0.155E-01 -.136E-01 -.669E-01
   -.247E+00 0.231E+00 -.766E+03   0.265E+00 -.230E+00 0.766E+03   0.124E-01 -.547E-02 0.278E+00   -.265E-01 0.353E-02 0.181E-01
   -.178E+01 0.857E+01 -.231E+04   0.181E+01 -.862E+01 0.231E+04   0.350E-02 -.181E-01 0.952E-01   -.397E-01 0.617E-01 0.666E-01
   -.689E+00 0.221E+00 0.231E+04   0.678E+00 -.235E+00 -.231E+04   0.616E-02 -.360E-02 -.113E+00   0.505E-02 0.116E-01 -.783E-01
   -.159E+00 0.521E+00 0.783E+03   0.138E+00 -.486E+00 -.783E+03   -.544E-02 0.777E-02 -.384E+00   0.271E-01 -.374E-01 -.733E-01
   -.276E+01 0.168E+00 -.766E+03   0.284E+01 -.146E+00 0.766E+03   -.397E-01 -.759E-02 0.427E+00   -.372E-01 -.158E-01 0.216E-01
   -.868E+00 0.147E+01 -.231E+04   0.823E+00 -.150E+01 0.231E+04   -.171E-01 0.873E-02 0.774E-01   0.643E-01 0.144E-01 0.674E-01
   0.448E+00 -.264E+00 0.231E+04   -.435E+00 0.260E+00 -.231E+04   0.494E-02 -.228E-02 -.103E+00   -.218E-01 0.762E-02 -.624E-01
   -.451E+00 0.338E+00 0.786E+03   0.486E+00 -.310E+00 -.786E+03   0.256E-02 -.792E-03 -.388E+00   -.334E-01 -.278E-01 -.100E+00
   -.450E+00 0.266E+00 -.776E+03   0.398E+00 -.241E+00 0.775E+03   0.165E-02 -.216E-02 0.401E+00   0.463E-01 -.208E-01 0.523E-01
   -.103E+02 0.585E+01 -.228E+04   0.104E+02 -.591E+01 0.228E+04   -.848E-01 0.487E-01 0.102E+00   -.216E-01 0.107E-01 0.561E-01
   -.511E+00 0.472E+00 0.231E+04   0.517E+00 -.452E+00 -.231E+04   0.627E-02 -.197E-02 -.113E+00   -.755E-02 -.155E-01 -.781E-01
   0.612E+00 -.490E+00 0.785E+03   -.575E+00 0.497E+00 -.784E+03   0.772E-02 -.690E-02 -.397E+00   -.426E-01 -.437E-02 -.867E-01
   0.125E+01 0.114E+01 -.773E+03   -.129E+01 -.113E+01 0.772E+03   0.186E-01 0.217E-01 0.400E+00   0.127E-01 -.212E-01 0.647E-01
   -.177E+01 -.752E-01 -.231E+04   0.176E+01 0.122E+00 0.231E+04   -.137E-01 0.121E-01 0.801E-01   0.252E-01 -.598E-01 0.663E-01
   -.962E-01 0.849E-01 0.231E+04   0.894E-01 -.819E-01 -.231E+04   -.908E-02 0.525E-02 -.126E+00   0.189E-01 -.107E-01 -.656E-01
   -.799E+00 0.436E+00 0.786E+03   0.822E+00 -.448E+00 -.786E+03   -.626E-02 0.503E-02 -.346E+00   -.176E-01 0.874E-02 -.904E-01
   0.126E+01 0.284E+00 -.771E+03   -.129E+01 -.197E+00 0.771E+03   0.564E-02 -.182E-03 0.382E+00   0.252E-01 -.886E-01 0.393E-01
   0.686E+00 -.415E+00 -.231E+04   -.732E+00 0.433E+00 0.231E+04   0.494E-02 -.322E-02 0.113E+00   0.391E-01 -.146E-01 0.465E-01
   -.160E+00 0.854E+00 0.231E+04   0.162E+00 -.857E+00 -.231E+04   0.719E-03 -.620E-02 -.990E-01   -.314E-02 -.120E-01 -.941E-01
   -.846E+00 -.573E+00 0.786E+03   0.806E+00 0.584E+00 -.785E+03   -.207E-01 0.845E-02 -.375E+00   0.600E-01 -.952E-02 -.101E+00
   -.239E+00 0.716E+00 -.767E+03   0.275E+00 -.793E+00 0.767E+03   -.281E-02 0.571E-02 0.367E+00   -.353E-01 0.673E-01 0.930E-02
   0.238E+01 -.222E+01 -.230E+04   -.238E+01 0.227E+01 0.230E+04   0.410E-02 0.132E-01 0.520E-01   0.302E-02 -.668E-01 0.882E-01
   0.106E+01 -.587E+00 0.231E+04   -.103E+01 0.564E+00 -.231E+04   -.145E-01 0.895E-02 -.883E-01   -.296E-01 0.233E-01 -.837E-01
   -.561E+00 0.250E+00 0.786E+03   0.561E+00 -.300E+00 -.786E+03   0.303E-02 -.170E-03 -.388E+00   -.704E-03 0.459E-01 -.105E+00
   0.183E+01 -.111E+01 -.765E+03   -.192E+01 0.117E+01 0.764E+03   0.379E-01 -.220E-01 0.450E+00   0.529E-01 -.362E-01 0.118E-01
   -.148E+01 0.865E+00 -.230E+04   0.155E+01 -.909E+00 0.230E+04   0.356E-02 -.215E-02 0.360E-01   -.833E-01 0.491E-01 0.785E-01
   -.823E+00 -.295E+00 0.231E+04   0.829E+00 0.286E+00 -.231E+04   0.511E-02 0.374E-02 -.100E+00   0.817E-02 0.144E-01 -.947E-01
   0.818E+00 0.565E-01 0.785E+03   -.777E+00 -.924E-01 -.784E+03   0.194E-02 -.216E-01 -.347E+00   -.438E-01 0.504E-01 -.942E-01
   0.541E+00 -.183E+01 -.769E+03   -.632E+00 0.187E+01 0.769E+03   0.211E-01 -.236E-01 0.372E+00   0.662E-01 -.898E-02 0.364E-01
   0.318E+01 -.864E+00 -.230E+04   -.322E+01 0.848E+00 0.230E+04   -.103E-01 -.113E-01 0.541E-01   0.532E-01 0.289E-01 0.890E-01
   -.719E+00 0.420E+00 0.231E+04   0.701E+00 -.410E+00 -.231E+04   -.132E-01 0.812E-02 -.117E+00   0.347E-01 -.208E-01 -.775E-01
   0.632E+00 -.373E+00 0.790E+03   -.615E+00 0.359E+00 -.790E+03   -.339E-03 0.187E-02 -.281E+00   -.201E-01 0.153E-01 -.121E+00
   0.409E+00 -.114E+01 -.772E+03   -.491E+00 0.112E+01 0.771E+03   0.444E-02 -.588E-02 0.382E+00   0.812E-01 0.272E-01 0.374E-01
   0.119E+02 -.682E+01 -.229E+04   -.120E+02 0.690E+01 0.229E+04   0.515E-01 -.277E-01 0.120E+00   0.683E-01 -.505E-01 0.691E-01
   0.230E+00 -.369E+00 0.231E+04   -.240E+00 0.367E+00 -.231E+04   0.108E-01 0.141E-01 -.182E+00   0.262E-02 -.745E-02 -.574E-01
   0.370E+00 -.745E+00 0.785E+03   -.327E+00 0.719E+00 -.784E+03   0.207E-01 0.120E-01 -.353E+00   -.582E-01 0.202E-01 -.949E-01
   -.349E+00 -.160E+01 -.773E+03   0.325E+00 0.161E+01 0.773E+03   -.103E-01 -.292E-01 0.400E+00   0.303E-01 0.132E-01 0.641E-01
   -.670E+01 -.102E+02 -.228E+04   0.687E+01 0.105E+02 0.228E+04   -.169E+00 -.323E+00 0.742E+00   -.400E-02 0.177E-01 0.490E-01
   -.809E+00 -.763E-01 0.231E+04   0.778E+00 0.652E-01 -.231E+04   0.295E-02 0.974E-02 -.944E-01   0.307E-01 -.214E-02 -.738E-01
   0.367E+00 -.159E+00 0.786E+03   -.363E+00 0.147E+00 -.785E+03   -.401E-02 0.298E-02 -.377E+00   0.162E-04 0.864E-02 -.686E-01
   -.184E+01 -.189E+01 -.775E+03   0.195E+01 0.190E+01 0.775E+03   -.550E-01 -.163E-01 0.433E+00   -.507E-01 0.187E-01 0.355E-01
   0.232E+01 -.684E+01 -.230E+04   -.239E+01 0.686E+01 0.230E+04   -.837E-02 -.363E-01 0.771E-01   0.820E-01 0.230E-01 0.609E-01
   0.585E+00 -.744E-01 0.231E+04   -.582E+00 0.547E-01 -.231E+04   0.370E-02 0.350E-02 -.867E-01   -.926E-02 0.749E-02 -.632E-01
   -.564E+00 -.559E-01 0.783E+03   0.524E+00 0.483E-01 -.782E+03   -.773E-02 0.112E-03 -.383E+00   0.442E-01 0.291E-02 -.775E-01
   -.698E+00 -.165E+00 -.768E+03   0.777E+00 0.176E+00 0.767E+03   -.582E-02 -.494E-03 0.365E+00   -.697E-01 -.533E-02 0.129E-01
   -.401E+01 -.452E+01 -.231E+04   0.405E+01 0.449E+01 0.231E+04   0.132E-01 -.979E-02 0.833E-01   -.497E-01 0.431E-01 0.498E-01
   0.637E+00 -.151E+00 0.231E+04   -.609E+00 0.156E+00 -.231E+04   0.392E-03 0.525E-03 -.980E-01   -.342E-01 0.146E-03 -.760E-01
   -.141E+00 -.531E+00 0.782E+03   0.125E+00 0.534E+00 -.782E+03   -.372E-02 0.895E-02 -.420E+00   0.175E-01 -.458E-02 -.740E-01
   0.118E+00 -.132E-01 -.767E+03   -.513E-01 -.327E-01 0.767E+03   0.103E-01 -.763E-02 0.382E+00   -.778E-01 0.539E-01 0.362E-01
   -.829E+01 -.269E+01 -.231E+04   0.834E+01 0.268E+01 0.231E+04   0.175E-01 0.502E-02 0.101E+00   -.640E-01 -.688E-03 0.700E-01
   0.160E+02 -.123E+02 -.234E+03   -.198E+02 0.153E+02 0.234E+03   0.390E+01 -.301E+01 0.199E+00   0.188E-03 -.838E-03 0.988E-03
   -.161E+02 0.123E+02 -.234E+03   0.200E+02 -.153E+02 0.234E+03   -.390E+01 0.301E+01 -.261E+00   -.978E-03 -.148E-03 0.102E-02
   -.485E-02 -.475E-02 0.309E-02   0.416E-12 0.700E-12 0.489E-11   -.165E-01 0.378E-01 0.101E+01   0.188E-02 -.950E-03 -.103E+01

 POSITION                                       TOTAL-FORCE (eV/Angst)
     10.55998      0.00001      1.11585         0.006600      0.004827     -0.003863
      2.63930      1.52455      3.55023         0.005397      0.003617     -0.004390
     -0.00262      3.05022      5.95380        -0.006173     -0.000978     -0.014413
     10.55692      0.00081      8.38666        -0.001915      0.000532      0.006653
      9.23998      2.28632      1.11585         0.004943     -0.000379      0.005127
      1.32019      3.81042      3.55238         0.000069      0.000390     -0.020479
      1.31892      0.76503      5.95941        -0.003414     -0.007017     -0.014151
      9.23527      2.28779      8.37908         0.000662      0.000834      0.010067
      1.31998      2.28632      1.11585        -0.002553     -0.005353     -0.001120
     -1.31871      3.80961      3.54860        -0.005844     -0.003382      0.002169
      3.95818      0.76260      5.94119         0.003057      0.002097      0.003665
      1.31550      2.28589      8.38752        -0.000485      0.002382     -0.099975
      2.63998      0.00001      1.11585        -0.007382      0.002047     -0.023160
      0.00062      1.52458      3.55521        -0.005966      0.000650     -0.007057
      2.63678      3.05135      5.95102         0.005063     -0.002737     -0.028832
      2.63938      0.00104      8.38906        -0.002196      0.002696      0.001529
      5.27998      0.00001      1.11585        -0.000026     -0.006342     -0.019685
      7.92016      1.52394      3.55196         0.001266      0.005049      0.000692
      5.27988      3.05200      5.94131         0.000414     -0.003039      0.005051
      5.27832      0.00180      8.38792         0.001202      0.001627     -0.002557
      3.95998      2.28632      1.11585        -0.003247      0.001127     -0.005680
      6.59979      3.81014      3.54709         0.002647     -0.001478      0.001440
      6.59823      0.76469      5.95419        -0.001377      0.000454      0.002657
      3.96235      2.28648      8.35400        -0.001766      0.000889      0.008697
      6.59998      2.28632      1.11585         0.004748      0.002364     -0.020208
      3.95931      3.81099      3.55020         0.000944     -0.005346     -0.005644
      9.23755      0.76358      5.95156        -0.001010      0.004582      0.008612
      6.59869      2.28900      8.38845        -0.001185     -0.000886     -0.002318
      7.91998      0.00001      1.11585         0.004022     -0.003378     -0.011563
      5.28022      1.52428      3.54602        -0.001561      0.001684      0.003204
      7.91832      3.05077      5.94776         0.000290     -0.002944      0.002880
      7.91759      0.00289      8.39416        -0.000631     -0.000268      0.006446
      7.91998      4.57263      1.11585         0.000443     -0.021094     -0.027210
      0.00158      6.09640      3.54839         0.000399      0.007858      0.003324
     -2.64182      7.62458      5.93973        -0.002005     -0.003487      0.000458
      7.91737      4.57607      8.37778         0.001292     -0.000906     -0.002758
      6.59998      6.85894      1.11585        -0.016811      0.008470      0.000535
     -1.31960      8.38379      3.54705         0.002772     -0.001886      0.001168
     -1.32311      5.33808      5.93632        -0.004660      0.003960      0.004655
      6.59803      6.86149      8.36180        -0.002479      0.001678      0.013569
     -1.32002      6.85894      1.11585         0.018630      0.008880     -0.027386
     -3.96041      8.38610      3.54929        -0.001031     -0.007210      0.002020
      1.31826      5.33827      5.95275        -0.002456      0.007530     -0.017357
     -1.32298      6.86161      8.37949         0.002131      0.000381     -0.004072
     -0.00002      4.57263      1.11585         0.005257     -0.003852     -0.011297
     -2.64005      6.09700      3.53910        -0.002385      0.001775      0.002846
     -0.00168      7.62354      5.94797         0.003726      0.000899      0.003496
     -0.00514      4.57687      8.37241         0.001894     -0.000328      0.001601
      2.63998      4.57263      1.11585         0.003089      0.003699     -0.000335
      5.27737      6.09584      3.54967         0.005588      0.005448      0.001467
      2.63889      7.62464      5.95202        -0.004118     -0.003347      0.008455
      2.63894      4.57906      8.38344        -0.001601     -0.002736     -0.095285
      1.31998      6.85894      1.11585         0.002310     -0.004396      0.005212
      3.95895      8.38391      3.54858         0.001215     -0.001640      0.008350
      3.95842      5.33641      5.95918         0.004153      0.008016     -0.016456
      1.31755      6.86433      8.37930        -0.000855      0.001553      0.008730
      3.95998      6.85894      1.11585        -0.001512     -0.009143     -0.003490
      1.32047      8.38360      3.55230        -0.002614     -0.005555      0.000880
      6.59723      5.33668      5.94012         0.002885      0.004458      0.000256
      3.95901      6.86334      8.38808        -0.001080      0.000070      0.005140
      5.27998      4.57263      1.11585        -0.005639      0.004871     -0.022576
      2.64011      6.09631      3.55505        -0.003168      0.006412     -0.007809
      5.27641      7.62461      5.94053         0.000709     -0.000868      0.012802
      5.27973      4.57488      8.38973        -0.002970     -0.000592      0.000988
      1.69503      3.65439     10.81224         0.008402     -0.004087      0.180518
      2.29437      3.19016     10.84836        -0.004106      0.000844      0.185768
    total drift:                               -0.019507      0.032078     -0.017036

  FREE ENERGIE OF THE ION-ELECTRON SYSTEM (eV)
  free  energy   TOTEN  =      -411.84590061 eV

  energy  without entropy=     -411.81743909  energy(sigma->0) =     -411.83641344

 d Force =-0.2108789E-03[-0.223E-03,-0.199E-03]  d Energy =-0.2181208E-03 0.724E-05
 d Force =-0.6948235E+01[-0.694E+01,-0.695E+01]  d Ewald  =-0.6948235E+01 0.273E-06

 NEB: the previous image is higher in energy: T
 NEB: the next image is higher in energy    : F
 NEB: only prev energy greater

 NEB: Tangent
      0.00000      0.00000      0.00000
      0.00444     -0.00634     -0.02081
     -0.01263      0.00759     -0.06627
     -0.00566     -0.00057      0.01812
      0.00000      0.00000      0.00000
     -0.00450      0.00253     -0.07561
     -0.00664     -0.02377     -0.06792
     -0.00464      0.00660      0.01718
      0.00000      0.00000      0.00000
     -0.00668      0.00366      0.01129
      0.00107     -0.00085      0.02105
     -0.00036      0.01304     -0.32752
      0.00000      0.00000      0.00000
     -0.00773     -0.00519     -0.03592
      0.01255     -0.00709     -0.09710
     -0.00457      0.00570      0.00497
      0.00000      0.00000      0.00000
     -0.00159     -0.00016     -0.00196
      0.00151      0.00003      0.02072
     -0.00531      0.00441      0.00175
      0.00000      0.00000      0.00000
      0.00155      0.00021      0.00978
      0.00296     -0.00125      0.00513
     -0.00888      0.00530      0.04614
      0.00000      0.00000      0.00000
      0.00768     -0.00062     -0.02065
     -0.00243      0.00349      0.00766
     -0.00645      0.00252      0.00080
      0.00000      0.00000      0.00000
      0.00329     -0.00170      0.01972
     -0.00467     -0.00139      0.01331
     -0.00343      0.00187      0.01629
      0.00000      0.00000      0.00000
     -0.00641      0.00404      0.01068
     -0.00007     -0.00409      0.02043
     -0.00336      0.00165      0.01808
      0.00000      0.00000      0.00000
      0.00076     -0.00106      0.00983
     -0.00658      0.00456      0.03362
     -0.00246      0.00137      0.06228
      0.00000      0.00000      0.00000
      0.00083     -0.00647      0.00814
     -0.01170      0.00758     -0.06589
     -0.00308      0.00229      0.01308
      0.00000      0.00000      0.00000
      0.00153     -0.00054      0.02248
     -0.00017      0.00558      0.01263
      0.00110     -0.00001      0.00907
      0.00000      0.00000      0.00000
      0.00640      0.00307      0.00650
     -0.00400      0.00077      0.00714
     -0.00913     -0.00695     -0.31181
      0.00000      0.00000      0.00000
      0.00234     -0.00100      0.02253
      0.01822      0.01747     -0.07125
     -0.00800      0.00009      0.01882
      0.00000      0.00000      0.00000
     -0.00060      0.00217     -0.00205
      0.00445      0.00293      0.02053
     -0.00313      0.00318      0.01327
      0.00000      0.00000      0.00000
      0.00055      0.00958     -0.03686
      0.00133     -0.00002      0.04343
     -0.00719      0.00107      0.00384
      0.06701     -0.00991      0.58605
     -0.04435     -0.00854      0.62422

 NEB: forces: par spring, perp REAL, dneb     0.000175    0.038472    0.000000
 NEB: distance to prev, next image, angle between     0.869810    0.869775  148.710862
 NEB: projections on to tangent (spring, REAL)    -0.000175    0.298853

 stress matrix after NEB project (eV)
     83.70779      0.06043     -0.04851
      0.06043     83.85329      0.05348
     -0.04851      0.05348      1.06891
  FORCES: max atom, RMS     0.012825    0.004736
  FORCE total and by dimension    0.038472    0.011637
  Stress total and by dimension  118.488519   83.853291
 Quasi-Newton relaxation of ions (Broydens 2nd method)
  g(Force)  = 0.153E-02   g(Stress)= 0.000E+00

 retain information from N=  5 steps
 eigenvalues of (default step * inverse Hessian matrix)
  average eigenvalue of G=   2.8839
 eigenvalue spectrum of G is  5.7209  5.7209  1.3363  1.1043  0.5373

 reached required accuracy - stopping structural energy minimisation