 vasp.5.4.4.18Apr17-6-g9f103f2a35 (build Nov 30 2020 22:55:02) complex

 executed on             LinuxIFC date 2023.10.01  17:41:47

 INCAR:
 POTCAR:    PAW_PBE Pt 04Feb2005
 POTCAR:    PAW_PBE Pt 04Feb2005
   VRHFIN =Pt: s1d9

   TITEL  = PAW_PBE Pt 04Feb2005
   POMASS =  195.080; ZVAL   =   10.000    mass and valenz
   ENMAX  =  230.283; ENMIN  =  172.712 eV

 Optimization of the real space projectors (new method)

 maximal supplied QI-value         = 14.36
 optimisation between [QCUT,QGAM] = [ 11.92, 23.98] = [ 39.79,161.09] Ry
 Optimized for a Real-space Cutoff    1.49 Angstroem

   l    n(q)    QCUT    max X(q) W(low)/X(q) W(high)/X(q)  e(spline)
   2     10    11.920    66.195    0.79E-04    0.18E-03    0.24E-06
   2     10    11.920    64.643    0.81E-04    0.19E-03    0.24E-06
   0     11    11.920    95.520    0.28E-04    0.54E-04    0.18E-06
   0     11    11.920    63.403    0.27E-04    0.52E-04    0.17E-06
   1     10    11.920    19.961    0.18E-04    0.11E-03    0.23E-06
   1     10    11.920    13.289    0.25E-04    0.87E-04    0.19E-06
  PAW_PBE Pt 04Feb2005                  :

 POSCAR: Pt111\(1\1\1)\(2)
  positions in cartesian coordinates
 exchange correlation table for  LEXCH =        8
   RHO(1)=    0.500       N(1)  =     2000
   RHO(2)=  100.500       N(2)  =     4000

 ion  position               nearest neighbor table
   1  1.000  0.000  0.056-   5 2.64   9 2.64  13 2.64  29 2.64  57 2.64  37 2.64  54 2.87  42 2.87
                            14 2.88
   2  0.333  0.167  0.178-  14 2.63   6 2.64  42 2.64  26 2.64  38 2.64  30 2.64  11 2.83   7 2.85
                             9 2.87  13 2.88  21 2.88  15 2.88
   3  0.168  0.334  0.300-  43 2.63  15 2.63   7 2.63  39 2.63  27 2.65  31 2.65   8 2.79   6 2.82
                            10 2.88  14 2.88  48 2.96  12 2.97
   4  0.000  0.000  0.419-  12 2.62  60 2.64  32 2.64  40 2.64  16 2.64   8 2.64   7 2.85  63 2.88
                            27 2.88
   5  1.000  0.250  0.056-   1 2.64  45 2.64  33 2.64   9 2.64  29 2.64  25 2.64  18 2.87  10 2.88
                            14 2.88
   6  0.333  0.417  0.181-  14 2.64   2 2.64  62 2.64  26 2.64  34 2.64  10 2.64   3 2.82  15 2.82
                            43 2.83  49 2.92  45 2.92   9 2.92
   7  0.167  0.085  0.299-   3 2.63  15 2.63  11 2.64  27 2.64  35 2.65  63 2.65   4 2.85  16 2.85
                             2 2.85  14 2.85  42 2.87  12 2.96
   8  0.999  0.250  0.416-  28 2.63  32 2.63  36 2.64   4 2.64  48 2.66  12 2.66   3 2.79  31 2.83
                            27 2.83
   9  0.250  0.250  0.056-  21 2.64  13 2.64   1 2.64  49 2.64  45 2.64   5 2.64  14 2.87   2 2.87
                             6 2.92
  10  0.084  0.417  0.178-  34 2.63   6 2.64  46 2.64  14 2.64  22 2.64  18 2.64  31 2.83  39 2.86
                            45 2.87  33 2.87   5 2.88   3 2.88
  11  0.417  0.083  0.297-  47 2.63  35 2.64   7 2.64  23 2.64  19 2.65  15 2.65   2 2.83  30 2.83
                            38 2.83  24 2.83  16 2.88  20 2.90
  12  0.249  0.247  0.427-   4 2.62  16 2.62  24 2.66   8 2.66  52 2.68  48 2.68   7 2.96  15 2.97
                             3 2.97
  13  0.250  0.000  0.056-  21 2.64   9 2.64  17 2.64   1 2.64  37 2.64  41 2.64  38 2.87  42 2.87
                             2 2.88
  14  0.084  0.167  0.178-   2 2.63   6 2.64  42 2.64  10 2.64  54 2.64  18 2.64  27 2.83   7 2.85
                             9 2.87   1 2.88   5 2.88   3 2.88
  15  0.416  0.334  0.300-  43 2.63   3 2.63   7 2.63  55 2.63  11 2.65  19 2.65  24 2.79   6 2.82
                            26 2.88   2 2.88  52 2.96  12 2.97
  16  0.250  0.000  0.419-  12 2.62  44 2.64  20 2.64  40 2.64   4 2.64  24 2.64   7 2.85  35 2.88
                            11 2.88
  17  0.500  0.000  0.056-  29 2.64  25 2.64  13 2.64  21 2.64  41 2.64  53 2.64  38 2.87  58 2.87
                            30 2.87
  18  0.833  0.167  0.178-  58 2.64  30 2.64  22 2.64  54 2.64  10 2.64  14 2.64  27 2.83  31 2.83
                            23 2.86  25 2.87   5 2.87  29 2.87
  19  0.667  0.334  0.297-  31 2.63  59 2.64  55 2.64  23 2.64  11 2.65  15 2.65  26 2.83  30 2.83
                            22 2.83  24 2.83  64 2.88  28 2.90
  20  0.500  0.000  0.420-  56 2.63  24 2.63  44 2.64  16 2.64  32 2.64  28 2.64  23 2.87  11 2.90
                            47 2.90
  21  0.500  0.250  0.056-  25 2.64  61 2.64   9 2.64  13 2.64  49 2.64  17 2.64  30 2.87  26 2.88
                             2 2.88
  22  0.833  0.417  0.177-  50 2.64  18 2.64  46 2.64  30 2.64  26 2.64  10 2.64  19 2.83  31 2.83
                            59 2.84  61 2.87  33 2.87  25 2.87
  23  0.667  0.083  0.298-  11 2.64  27 2.64  47 2.64  51 2.64  31 2.64  19 2.64  18 2.86  30 2.86
                            58 2.86  32 2.87  20 2.87  28 2.88
  24  0.501  0.250  0.416-  28 2.63  20 2.63  64 2.64  16 2.64  52 2.66  12 2.66  15 2.79  19 2.83
                            11 2.83
  25  0.750  0.250  0.056-  17 2.64  21 2.64  29 2.64  61 2.64  33 2.64   5 2.64  22 2.87  18 2.87
                            30 2.87
  26  0.583  0.417  0.178-  62 2.63   6 2.64  50 2.64   2 2.64  22 2.64  30 2.64  19 2.83  55 2.86
                            49 2.87  61 2.87  21 2.88  15 2.88
  27  0.917  0.083  0.297-  51 2.63  63 2.64  23 2.64   7 2.64  31 2.65   3 2.65  14 2.83  18 2.83
                            54 2.83   8 2.83   4 2.88  32 2.90
  28  0.750  0.250  0.420-   8 2.63  24 2.63  64 2.64  36 2.64  20 2.64  32 2.64  23 2.88  31 2.90
                            19 2.90
  29  0.750  0.000  0.056-  17 2.64  25 2.64   5 2.64  53 2.64   1 2.64  57 2.64  54 2.87  58 2.87
                            18 2.87
  30  0.583  0.167  0.178-  58 2.64  18 2.64  22 2.64  38 2.64  26 2.64   2 2.64  11 2.83  19 2.83
                            23 2.86  25 2.87  21 2.87  17 2.87
  31  0.917  0.334  0.297-  19 2.63  59 2.64  39 2.64  23 2.64  27 2.65   3 2.65  10 2.83  18 2.83
                            22 2.83   8 2.83  36 2.88  28 2.90
  32  0.750  0.000  0.420-  56 2.63   8 2.63  60 2.64   4 2.64  20 2.64  28 2.64  23 2.87  27 2.90
                            51 2.90
  33  1.000  0.500  0.056-  37 2.64  41 2.64   5 2.64  45 2.64  25 2.64  61 2.64  46 2.87  22 2.87
                            10 2.87
  34  0.333  0.666  0.178-  10 2.63   6 2.64  46 2.64  62 2.64  38 2.64  58 2.64  47 2.83  39 2.85
                            45 2.87  41 2.88  53 2.88  43 2.88
  35  0.167  0.833  0.297-  11 2.64  47 2.64  59 2.64  63 2.64  39 2.65   7 2.65  42 2.84  38 2.84
                            46 2.84  40 2.85  44 2.87  16 2.88
  36  0.000  0.500  0.419-  48 2.62  64 2.64  40 2.64  28 2.64  44 2.64   8 2.64  39 2.85  59 2.87
                            31 2.88
  37  1.000  0.750  0.056-  33 2.64  41 2.64  61 2.64  57 2.64  13 2.64   1 2.64  50 2.87  46 2.87
                            42 2.87
  38  0.333  0.917  0.177-  42 2.64  46 2.64  30 2.64  58 2.64   2 2.64  34 2.64  47 2.83  11 2.83
                            35 2.84  13 2.87  17 2.87  41 2.87
  39  0.167  0.583  0.299-  43 2.63   3 2.63  47 2.64  31 2.64  35 2.65  59 2.65  34 2.85  36 2.85
                            44 2.86  10 2.86  46 2.87  48 2.96
  40  0.000  0.750  0.418-  36 2.64  64 2.64  44 2.64  60 2.64   4 2.64  16 2.64  35 2.85  63 2.85
                            59 2.85
  41  0.250  0.750  0.056-  45 2.64  33 2.64  37 2.64  53 2.64  17 2.64  13 2.64  46 2.87  38 2.87
                            34 2.88
  42  0.083  0.917  0.177-   2 2.64  14 2.64  38 2.64  54 2.64  46 2.64  50 2.64  63 2.84  35 2.84
                            13 2.87   1 2.87  37 2.87   7 2.87
  43  0.416  0.583  0.300-   3 2.63  15 2.63  55 2.63  39 2.63  51 2.65  47 2.65  56 2.79   6 2.83
                            62 2.88  34 2.88  48 2.96  52 2.96
  44  0.250  0.750  0.419-  48 2.62  16 2.64  20 2.64  40 2.64  36 2.64  56 2.64  39 2.86  35 2.87
                            47 2.88
  45  0.250  0.500  0.056-  41 2.64  53 2.64   5 2.64   9 2.64  49 2.64  33 2.64  10 2.87  34 2.87
                             6 2.92
  46  0.083  0.667  0.177-  10 2.64  34 2.64  38 2.64  22 2.64  42 2.64  50 2.64  59 2.84  35 2.84
                            41 2.87  33 2.87  37 2.87  39 2.87
  47  0.417  0.834  0.297-  11 2.63  35 2.64  39 2.64  23 2.64  51 2.65  43 2.65  58 2.83  34 2.83
                            38 2.83  56 2.83  44 2.88  20 2.90
  48  0.249  0.502  0.426-  44 2.62  36 2.62  56 2.65   8 2.66  12 2.68  52 2.68  39 2.96  43 2.96
                             3 2.96
  49  0.500  0.500  0.056-  61 2.64  53 2.64  57 2.64  21 2.64   9 2.64  45 2.64  26 2.87  62 2.87
                             6 2.92
  50  0.833  0.667  0.177-  62 2.64  26 2.64  54 2.64  22 2.64  42 2.64  46 2.64  59 2.84  63 2.84
                            57 2.87  61 2.87  37 2.87  55 2.87
  51  0.667  0.834  0.297-  27 2.63  63 2.64  55 2.64  23 2.64  47 2.65  43 2.65  58 2.83  62 2.83
                            54 2.83  56 2.83  60 2.88  32 2.90
  52  0.503  0.502  0.426-  60 2.62  64 2.62  56 2.65  24 2.66  12 2.68  48 2.68  55 2.96  43 2.96
                            15 2.96
  53  0.500  0.750  0.056-  49 2.64  57 2.64  45 2.64  41 2.64  29 2.64  17 2.64  58 2.87  34 2.88
                            62 2.88
  54  0.833  0.917  0.177-  42 2.64  50 2.64  58 2.64  18 2.64  62 2.64  14 2.64  51 2.83  27 2.83
                            63 2.84   1 2.87  29 2.87  57 2.87
  55  0.665  0.583  0.299-  43 2.63  15 2.63  19 2.64  51 2.64  59 2.65  63 2.65  62 2.85  64 2.85
                            60 2.86  26 2.86  50 2.87  52 2.96
  56  0.501  0.751  0.416-  20 2.63  32 2.63  44 2.64  60 2.64  48 2.65  52 2.65  43 2.79  47 2.83
                            51 2.83
  57  0.750  0.750  0.056-  61 2.64  49 2.64  53 2.64  37 2.64   1 2.64  29 2.64  50 2.87  54 2.87
                            62 2.88
  58  0.583  0.917  0.178-  18 2.64  30 2.64  38 2.64  54 2.64  34 2.64  62 2.64  47 2.83  51 2.83
                            23 2.86  17 2.87  29 2.87  53 2.87
  59  0.917  0.584  0.297-  31 2.64  19 2.64  63 2.64  35 2.64  55 2.65  39 2.65  46 2.84  50 2.84
                            22 2.84  40 2.85  36 2.87  64 2.87
  60  0.750  0.750  0.419-  52 2.62   4 2.64  32 2.64  40 2.64  64 2.64  56 2.64  55 2.86  63 2.87
                            51 2.88
  61  0.750  0.500  0.056-  49 2.64  57 2.64  21 2.64  25 2.64  37 2.64  33 2.64  50 2.87  22 2.87
                            26 2.87
  62  0.583  0.666  0.178-  26 2.63   6 2.64  50 2.64  34 2.64  54 2.64  58 2.64  51 2.83  55 2.85
                            49 2.87  57 2.88  53 2.88  43 2.88
  63  0.917  0.833  0.297-  27 2.64  51 2.64  59 2.64  35 2.64  55 2.65   7 2.65  42 2.84  54 2.84
                            50 2.84  40 2.85  60 2.87   4 2.88
  64  0.750  0.500  0.419-  52 2.62  36 2.64  40 2.64  28 2.64  60 2.64  24 2.64  55 2.85  59 2.87
                            19 2.88

  LATTYP: Found a hexagonal cell.
 ALAT       =    10.5600004196
 C/A-ratio  =     1.8939393187

  Lattice vectors:

 A1 = (  10.5600004196,   0.0000000000,   0.0000000000)
 A2 = (  -5.2800002098,   9.1452286274,   0.0000000000)
 A3 = (   0.0000000000,   0.0000000000,  20.0000000000)

[...]
    416      10.4148      0.00000
    417      10.4333      0.00000
    418      10.4399      0.00000
    419      10.4449      0.00000
    420      10.4493      0.00000

[...]

 soft charge-density along one line, spin component           2
         0         1         2         3         4         5         6         7         8         9
 total charge-density along one line

------------------------ aborting loop because EDIFF is reached ----------------------------------------

         DFTD3 V3.0 Rev 1
 Edisp (eV)  -38.64684

 E6    (eV) :   -14.2406
 E8    (eV) :   -24.4063
 % E8        : 63.15

  FORCE on cell =-STRESS in cart. coord.  units (eV):
  Direction    XX          YY          ZZ          XY          YZ          ZX
  Alpha Z  2015.86452  2015.86452  2015.86452
  Ewald  162757.28966162755.64382************     0.02979    -0.82890    -0.03059
  Hartree173641.29292173640.82021************     0.00817    -0.16920    -0.00632
  E(xc)   -2855.89306 -2855.90669 -2881.55824     0.00027    -0.00956    -0.00036
  Local  ************************358532.94537    -0.03047     0.68565     0.02508
  n-local   578.06130   577.91995   312.71600     0.00216    -0.01826    -0.00082
  augment  3252.48659  3252.65918  3534.35333    -0.00386     0.11615     0.00440
  Kinetic  9148.96035  9149.35369  9743.35084    -0.00801     0.24424     0.00948
  Fock        0.00000     0.00000     0.00000     0.00000     0.00000     0.00000
  vdW       -53.50627   -53.48073   -28.77465    -0.00047    -0.00439    -0.00016
  Total      81.22184    81.30156    -1.42924    -0.00242     0.01574     0.00069
  in kB      67.37440    67.44053    -1.18557    -0.00200     0.01305     0.00057

 VOLUME and BASIS-vectors are now :
  energy-cutoff  :      550.00
  volume of cell :     1931.47
      direct lattice vectors                 reciprocal lattice vectors
    10.560000420  0.000000000  0.000000000     0.094696966  0.054673319  0.000000000
    -5.280000210  9.145228627  0.000000000     0.000000000  0.109346638  0.000000000
     0.000000000  0.000000000 20.000000000     0.000000000  0.000000000  0.050000000

  length of vectors
    10.560000420 10.560000420 20.000000000     0.109346638  0.109346638  0.050000000

 FORCES acting on ions
    electron-ion (+dipol)            ewald-force                    non-local-force                 convergence-correction
   0.410E-01 -.599E+01 0.232E+04   -.292E-01 0.594E+01 -.232E+04   -.282E-01 0.548E-01 -.118E+00   0.435E-02 -.108E-01 0.160E-01
   0.160E+01 -.284E+01 0.770E+03   -.162E+01 0.285E+01 -.769E+03   0.240E-01 -.226E-01 -.404E+00   -.291E-03 0.436E-02 0.101E-01
   0.137E+01 0.760E+00 -.808E+03   -.137E+01 -.762E+00 0.808E+03   0.150E-01 0.801E-02 0.235E+00   -.517E-02 -.250E-02 -.220E-01
   0.203E+01 0.629E+01 -.231E+04   -.199E+01 -.624E+01 0.231E+04   -.483E-01 -.406E-01 0.833E-01   -.115E-01 -.104E-02 -.100E-01
   -.496E+01 -.278E+01 0.230E+04   0.495E+01 0.278E+01 -.230E+04   -.141E-01 -.934E-02 -.834E-01   0.293E-02 0.136E-02 0.327E-02
   0.313E-03 -.183E-01 0.738E+03   -.418E-03 0.178E-01 -.737E+03   0.232E-04 0.240E-02 -.590E+00   -.578E-05 -.742E-03 0.136E-01
   0.668E-02 0.195E+01 -.781E+03   -.679E-02 -.195E+01 0.780E+03   -.217E-03 -.502E-03 0.402E+00   0.164E-03 0.100E-01 -.243E-01
   0.816E+01 0.453E+01 -.231E+04   -.805E+01 -.446E+01 0.231E+04   -.902E-01 -.465E-01 0.101E+00   -.205E-01 -.102E-01 -.435E-01
   -.390E-02 -.724E+01 0.229E+04   0.367E-02 0.720E+01 -.229E+04   0.834E-04 0.492E-01 -.606E-01   0.106E-03 -.244E-02 -.146E-01
   -.325E+01 -.163E-02 0.770E+03   0.327E+01 0.720E-02 -.770E+03   -.331E-01 -.845E-02 -.403E+00   0.396E-02 -.265E-02 0.107E-01
   -.729E+00 0.157E+01 -.771E+03   0.712E+00 -.158E+01 0.770E+03   0.208E-01 0.706E-02 0.433E+00   0.103E-01 0.116E-01 -.117E-01
   0.853E-02 0.745E+01 -.233E+04   -.854E-02 -.741E+01 0.233E+04   0.175E-04 -.306E-01 0.168E+00   -.716E-04 -.151E-02 0.136E-01
   -.454E-01 -.599E+01 0.232E+04   0.335E-01 0.594E+01 -.232E+04   0.290E-01 0.547E-01 -.117E+00   -.439E-02 -.108E-01 0.159E-01
   -.160E+01 -.284E+01 0.770E+03   0.162E+01 0.285E+01 -.769E+03   -.240E-01 -.226E-01 -.404E+00   0.334E-03 0.442E-02 0.100E-01
   -.136E+01 0.757E+00 -.808E+03   0.136E+01 -.759E+00 0.808E+03   -.153E-01 0.782E-02 0.235E+00   0.509E-02 -.274E-02 -.221E-01
   -.201E+01 0.630E+01 -.231E+04   0.197E+01 -.625E+01 0.231E+04   0.480E-01 -.409E-01 0.832E-01   0.115E-01 -.105E-02 -.101E-01
   -.145E+00 -.106E+00 0.232E+04   0.127E+00 0.943E-01 -.232E+04   0.175E-01 0.106E-01 -.133E+00   -.836E-02 -.402E-02 0.150E-01
   -.126E+01 -.715E+00 0.784E+03   0.125E+01 0.710E+00 -.784E+03   0.105E-01 0.600E-02 -.376E+00   0.878E-02 0.514E-02 0.108E-01
   -.172E+01 -.230E+00 -.770E+03   0.172E+01 0.254E+00 0.770E+03   0.495E-02 -.194E-01 0.437E+00   -.460E-02 -.142E-01 -.113E-01
   -.416E-01 0.439E-01 -.230E+04   0.138E-01 -.583E-01 0.231E+04   0.282E-02 -.102E-03 0.103E+00   0.668E-02 0.383E-02 -.116E-01
   0.495E+01 -.278E+01 0.230E+04   -.495E+01 0.278E+01 -.230E+04   0.143E-01 -.945E-02 -.834E-01   -.284E-02 0.151E-02 0.326E-02
   0.211E-02 -.242E+00 0.793E+03   -.195E-02 0.263E+00 -.793E+03   -.187E-03 -.314E-01 -.345E+00   -.151E-03 0.408E-02 0.198E-02
   0.540E-02 0.483E-01 -.775E+03   -.545E-02 -.466E-01 0.775E+03   -.120E-03 -.280E-02 0.379E+00   -.244E-04 -.455E-03 0.233E-01
   -.817E+01 0.452E+01 -.231E+04   0.806E+01 -.446E+01 0.231E+04   0.905E-01 -.465E-01 0.101E+00   0.204E-01 -.103E-01 -.435E-01
   0.723E-02 0.204E+00 0.232E+04   -.712E-02 -.185E+00 -.232E+04   -.290E-03 -.178E-01 -.133E+00   -.112E-03 0.957E-02 0.153E-01
   0.325E+01 0.835E-03 0.770E+03   -.327E+01 0.468E-02 -.770E+03   0.333E-01 -.844E-02 -.403E+00   -.381E-02 -.265E-02 0.107E-01
   0.718E+00 0.157E+01 -.771E+03   -.701E+00 -.159E+01 0.770E+03   -.209E-01 0.695E-02 0.433E+00   -.105E-01 0.116E-01 -.118E-01
   -.546E-02 -.942E-01 -.231E+04   0.539E-02 0.127E+00 0.231E+04   0.353E-03 -.306E-02 0.104E+00   0.690E-04 -.711E-02 -.115E-01
   0.147E+00 -.103E+00 0.232E+04   -.129E+00 0.908E-01 -.232E+04   -.172E-01 0.106E-01 -.132E+00   0.834E-02 -.405E-02 0.150E-01
   0.126E+01 -.718E+00 0.784E+03   -.125E+01 0.713E+00 -.784E+03   -.103E-01 0.613E-02 -.376E+00   -.883E-02 0.523E-02 0.107E-01
   0.172E+01 -.239E+00 -.771E+03   -.172E+01 0.263E+00 0.770E+03   -.530E-02 -.186E-01 0.437E+00   0.464E-02 -.143E-01 -.112E-01
   0.307E-01 0.486E-01 -.230E+04   -.291E-02 -.631E-01 0.231E+04   -.266E-02 -.322E-03 0.103E+00   -.662E-02 0.400E-02 -.116E-01
   -.512E+01 0.299E+01 0.232E+04   0.508E+01 -.295E+01 -.232E+04   0.305E-01 -.495E-01 -.118E+00   -.811E-02 0.945E-02 0.158E-01
   -.164E+01 0.281E+01 0.770E+03   0.164E+01 -.283E+01 -.769E+03   -.781E-02 0.343E-01 -.404E+00   0.368E-02 -.210E-02 0.110E-01
   0.384E+00 0.346E+00 -.763E+03   -.376E+00 -.339E+00 0.763E+03   -.185E-01 -.125E-01 0.397E+00   -.213E-03 -.510E-03 -.508E-02
   0.631E+01 -.125E+01 -.231E+04   -.625E+01 0.126E+01 0.231E+04   -.583E-01 -.250E-01 0.841E-01   -.613E-02 -.100E-01 -.109E-01
   -.978E-02 -.557E-01 0.232E+04   0.975E-02 0.523E-01 -.232E+04   0.184E-03 0.206E-02 -.946E-01   -.289E-04 0.205E-03 0.174E-01
   0.188E+00 0.875E-01 0.793E+03   -.206E+00 -.994E-01 -.793E+03   0.276E-01 0.177E-01 -.346E+00   -.411E-02 -.188E-02 0.143E-02
   0.173E+01 -.102E+01 -.780E+03   -.173E+01 0.102E+01 0.780E+03   0.151E-03 -.379E-03 0.404E+00   0.843E-02 -.493E-02 -.234E-01
   0.350E-03 -.680E-01 -.229E+04   -.428E-03 0.694E-01 0.229E+04   0.137E-03 0.556E-02 0.674E-01   0.437E-04 -.474E-03 -.247E-01
   -.516E+01 0.290E+01 0.232E+04   0.511E+01 -.289E+01 -.232E+04   0.597E-01 0.165E-03 -.118E+00   -.126E-01 0.232E-02 0.159E-01
   0.109E-02 -.176E+01 0.790E+03   -.111E-02 0.178E+01 -.790E+03   0.186E-03 -.908E-02 -.344E+00   0.343E-04 -.262E-02 0.506E-02
   -.118E-01 -.168E+01 -.808E+03   0.119E-01 0.168E+01 0.808E+03   0.412E-03 -.167E-01 0.236E+00   -.485E-04 0.621E-02 -.210E-01
   0.427E+01 -.472E+01 -.231E+04   -.426E+01 0.467E+01 0.231E+04   -.970E-02 0.602E-01 0.846E-01   0.582E-02 0.844E-02 -.106E-01
   -.635E+01 0.364E+01 0.229E+04   0.631E+01 -.362E+01 -.229E+04   0.439E-01 -.221E-01 -.603E-01   -.183E-02 0.851E-03 -.150E-01
   -.155E+01 0.893E+00 0.790E+03   0.156E+01 -.903E+00 -.790E+03   -.381E-02 0.385E-02 -.346E+00   -.258E-02 0.185E-02 0.528E-02
   0.943E+00 -.128E+01 -.771E+03   -.967E+00 0.128E+01 0.770E+03   0.186E-01 0.135E-01 0.435E+00   0.153E-01 0.237E-02 -.116E-01
   0.660E+01 -.389E+01 -.233E+04   -.657E+01 0.387E+01 0.233E+04   -.324E-01 0.201E-01 0.166E+00   -.236E-02 0.140E-02 0.123E-01
   0.635E+01 0.365E+01 0.229E+04   -.631E+01 -.362E+01 -.229E+04   -.442E-01 -.222E-01 -.604E-01   0.188E-02 0.846E-03 -.149E-01
   0.155E+01 0.891E+00 0.790E+03   -.156E+01 -.900E+00 -.790E+03   0.434E-02 0.382E-02 -.345E+00   0.256E-02 0.182E-02 0.534E-02
   -.954E+00 -.127E+01 -.771E+03   0.978E+00 0.126E+01 0.770E+03   -.189E-01 0.130E-01 0.436E+00   -.154E-01 0.247E-02 -.117E-01
   -.660E+01 -.390E+01 -.233E+04   0.656E+01 0.388E+01 0.233E+04   0.319E-01 0.205E-01 0.166E+00   0.219E-02 0.149E-02 0.124E-01
   -.215E-02 0.565E+01 0.230E+04   0.192E-02 -.565E+01 -.230E+04   0.317E-03 0.190E-01 -.832E-01   0.154E-03 -.284E-02 0.307E-02
   -.185E+00 0.966E-01 0.793E+03   0.202E+00 -.108E+00 -.793E+03   -.278E-01 0.173E-01 -.346E+00   0.400E-02 -.203E-02 0.150E-02
   -.172E+01 -.105E+01 -.780E+03   0.172E+01 0.105E+01 0.780E+03   -.168E-03 0.192E-03 0.404E+00   -.828E-02 -.490E-02 -.236E-01
   -.594E-02 -.919E+01 -.231E+04   0.610E-02 0.907E+01 0.231E+04   -.245E-04 0.976E-01 0.997E-01   -.372E-04 0.226E-01 -.432E-01
   0.517E+01 0.290E+01 0.232E+04   -.512E+01 -.289E+01 -.232E+04   -.600E-01 0.205E-03 -.118E+00   0.125E-01 0.224E-02 0.159E-01
   -.546E-02 0.142E+01 0.784E+03   0.532E-02 -.141E+01 -.783E+03   0.202E-03 -.993E-02 -.375E+00   0.522E-04 -.101E-01 0.113E-01
   0.638E-02 -.439E+00 -.763E+03   -.618E-02 0.430E+00 0.763E+03   -.752E-04 0.207E-01 0.394E+00   -.842E-04 -.631E-03 -.434E-02
   -.427E+01 -.473E+01 -.231E+04   0.425E+01 0.468E+01 0.231E+04   0.946E-02 0.608E-01 0.842E-01   -.567E-02 0.847E-02 -.105E-01
   0.512E+01 0.300E+01 0.232E+04   -.508E+01 -.297E+01 -.232E+04   -.305E-01 -.502E-01 -.117E+00   0.803E-02 0.938E-02 0.158E-01
   0.163E+01 0.280E+01 0.770E+03   -.164E+01 -.283E+01 -.769E+03   0.816E-02 0.341E-01 -.404E+00   -.364E-02 -.207E-02 0.110E-01
   -.369E+00 0.354E+00 -.763E+03   0.361E+00 -.347E+00 0.763E+03   0.178E-01 -.129E-01 0.396E+00   0.205E-03 -.675E-03 -.522E-02
   -.631E+01 -.125E+01 -.231E+04   0.625E+01 0.127E+01 0.231E+04   0.584E-01 -.249E-01 0.839E-01   0.622E-02 -.998E-02 -.108E-01
   -.874E-04 -.189E-02 0.202E+00   0.290E-12 0.751E-12 0.455E-11   0.722E-03 0.335E-01 -.682E-01   -.833E-05 -.191E-04 -.158E+00

 POSITION                                       TOTAL-FORCE (eV/Angst)
      0.00130      0.00034      1.10268        -0.010281     -0.012087     -0.004290
      2.64017      1.52518      3.57115         0.001982     -0.003590      0.005027
      0.00029      3.05017      6.01384         0.012406      0.005339     -0.032727
      0.00116      0.00188      8.38260        -0.019872     -0.001278     -0.007115
     -1.31805      2.28704      1.13361        -0.008888     -0.007439      0.004022
      1.31997      3.81067      3.62908        -0.000100      0.000760     -0.001882
      1.32005      0.76665      5.96189        -0.000185      0.003619      0.008139
     -1.32063      2.28806      8.39428        -0.001094      0.005610      0.005000
      1.31995      2.28706      1.15284        -0.000051      0.000963      0.029344
     -1.31943      3.81028      3.57081        -0.004628     -0.000804      0.003671
      3.95999      0.76392      5.94287         0.007863      0.002478      0.015569
      1.32004      2.28681      8.44499        -0.000070      0.005934      0.026291
      2.63859      0.00034      1.10273         0.010805     -0.012172     -0.004025
     -0.00022      1.52518      3.57114        -0.002092     -0.003552      0.005017
      2.63979      3.05019      6.01385        -0.012731      0.005253     -0.033138
      2.63896      0.00189      8.38257         0.019709     -0.001577     -0.007043
      5.27980     -0.00053      1.10714        -0.011348     -0.007297     -0.002890
      7.91802      1.52336      3.54627         0.016999      0.008747     -0.001911
      5.27999      3.05018      5.94239         0.003414     -0.004758      0.018536
      5.27973      0.00220      8.37963        -0.019296     -0.011743     -0.011996
      3.95795      2.28704      1.13361         0.009016     -0.007555      0.004159
      6.59998      3.81152      3.52956        -0.000172     -0.002079      0.003961
      6.60004      0.76400      5.94853        -0.000203     -0.002047     -0.036442
      3.96069      2.28805      8.39422         0.001398      0.005598      0.005237
      6.59996      2.28594      1.10693        -0.000301      0.013100     -0.003427
      3.95936      3.81028      3.57081         0.004727     -0.000836      0.003596
      9.24009      0.76392      5.94286        -0.007773      0.002410      0.015877
      6.60002      2.28909      8.37974         0.000329      0.023086     -0.011943
      7.92008     -0.00053      1.10715         0.011576     -0.007403     -0.002754
      5.28191      1.52336      3.54627        -0.016982      0.008818     -0.001872
      7.92011      3.05014      5.94240        -0.003508     -0.004047      0.018383
      7.92037      0.00221      8.37957         0.019551     -0.011892     -0.011787
     -2.63861      4.57284      1.10205        -0.016943     -0.003132     -0.003907
      0.00067      6.09679      3.57087        -0.002155      0.003269      0.004308
     -2.63802      7.62398      5.93099        -0.013337     -0.008763     -0.014617
     -2.63968      4.57618      8.38233        -0.009801     -0.019332     -0.007285
      6.59994      6.85839      1.09942         0.000119     -0.001579     -0.011394
     -1.32059      8.38292      3.52994         0.001459      0.001070      0.004528
     -1.31751      5.33508      5.96153         0.002690     -0.001310      0.009083
     -3.95996      6.86085      8.35174         0.000084      0.005867      0.020041
     -1.31996      6.85692      1.10214        -0.005815      0.014109     -0.004037
     -3.96002      8.38443      3.53398         0.000196     -0.001125     -0.022519
      1.32002      5.33607      6.01336         0.000419     -0.013118     -0.031556
     -1.32085      6.86063      8.38322         0.009673      0.018724     -0.008350
      0.00096      4.57157      1.15254         0.002307     -0.000681      0.029394
     -2.63917      6.09655      3.53379         0.003542     -0.002173     -0.022962
     -0.00011      7.62283      5.94262         0.006518      0.005794      0.017431
     -0.00112      4.57559      8.44347         0.000087      0.001236      0.026417
      2.63896      4.57158      1.15254        -0.002735     -0.000772      0.029336
      5.27912      6.09656      3.53374        -0.003001     -0.002149     -0.022619
      2.64021      7.62285      5.94259        -0.006599      0.005128      0.017858
      2.64125      4.57557      8.44347        -0.000465      0.001653      0.026111
      1.31994      6.85616      1.13382         0.000231      0.009801      0.003775
      3.96055      8.38295      3.52988        -0.001773      0.000759      0.004571
      3.95759      5.33506      5.96146        -0.002710     -0.000647      0.009211
      1.32007      6.86227      8.39369         0.000087     -0.002629      0.003856
      3.95985      6.85692      1.10213         0.005390      0.014268     -0.004155
      1.31996      8.38555      3.54632         0.000112     -0.018773     -0.001741
      6.60005      5.33427      5.93101         0.000027      0.014565     -0.016843
      3.96097      6.86060      8.38322        -0.009756      0.019161     -0.008778
      5.27853      4.57286      1.10210         0.016983     -0.003781     -0.003873
      2.63925      6.09679      3.57085         0.002326      0.003215      0.004509
      5.27812      7.62400      5.93096         0.012604     -0.009003     -0.014987
      5.27978      4.57616      8.38233         0.010035     -0.019210     -0.007392
    total drift:                                0.000626      0.031646     -0.024498

  FREE ENERGIE OF THE ION-ELECTRON SYSTEM (eV)
  free  energy   TOTEN  =      -405.09023099 eV

  energy  without entropy=     -405.07127984  energy(sigma->0) =     -405.08391394

 d Force = 0.6375886E-03[ 0.370E-03, 0.905E-03]  d Energy = 0.6827171E-03-0.451E-04
 d Force =-0.1634487E+02[-0.163E+02,-0.164E+02]  d Ewald  =-0.1634487E+02 0.108E-05

 reached required accuracy - stopping structural energy minimisation