 vasp.5.4.4.18Apr17-6-g9f103f2a35 (build Nov 30 2020 22:55:02) complex

 executed on             LinuxIFC date 2023.09.08  08:43:24

 INCAR:
 POTCAR:    PAW_PBE Co 02Aug2007
 POTCAR:    PAW_PBE Pt 04Feb2005
 POTCAR:    PAW_PBE H 15Jun2001
 POTCAR:    PAW_PBE Co 02Aug2007
   VRHFIN =Co: d8 s1

   TITEL  = PAW_PBE Co 02Aug2007
   POMASS =   58.933; ZVAL   =    9.000    mass and valenz
   ENMAX  =  267.968; ENMIN  =  200.976 eV

 POTCAR:    PAW_PBE Pt 04Feb2005
   VRHFIN =Pt: s1d9

   TITEL  = PAW_PBE Pt 04Feb2005
   POMASS =  195.080; ZVAL   =   10.000    mass and valenz
   ENMAX  =  230.283; ENMIN  =  172.712 eV

 POTCAR:    PAW_PBE H 15Jun2001
   VRHFIN =H: ultrasoft test

   TITEL  = PAW_PBE H 15Jun2001
   POMASS =    1.000; ZVAL   =    1.000    mass and valenz
   ENMAX  =  250.000; ENMIN  =  200.000 eV

 Optimization of the real space projectors (new method)

 maximal supplied QI-value         = 16.25
 optimisation between [QCUT,QGAM] = [ 11.86, 23.89] = [ 39.41,159.82] Ry
 Optimized for a Real-space Cutoff    1.33 Angstroem

   l    n(q)    QCUT    max X(q) W(low)/X(q) W(high)/X(q)  e(spline)
   2      9    11.864    65.824    0.22E-03    0.53E-03    0.26E-06
   2      9    11.864    61.429    0.22E-03    0.53E-03    0.26E-06
   0      9    11.864    56.174    0.21E-03    0.32E-04    0.15E-06
   0      9    11.864    31.263    0.19E-03    0.30E-04    0.14E-06
   1      9    11.864    19.828    0.63E-04    0.30E-03    0.16E-06
   1      9    11.864    15.139    0.49E-04    0.25E-03    0.13E-06
 Optimization of the real space projectors (new method)

[...]

   l    n(q)    QCUT    max X(q) W(low)/X(q) W(high)/X(q)  e(spline)
   2     10    11.920    66.195    0.79E-04    0.18E-03    0.24E-06
   2     10    11.920    64.643    0.81E-04    0.19E-03    0.24E-06
   0     11    11.920    95.520    0.28E-04    0.54E-04    0.18E-06
   0     11    11.920    63.403    0.27E-04    0.52E-04    0.17E-06
   1     10    11.920    19.961    0.18E-04    0.11E-03    0.23E-06
   1     10    11.920    13.289    0.25E-04    0.87E-04    0.19E-06
 Optimization of the real space projectors (new method)

 maximal supplied QI-value         = 34.20
 optimisation between [QCUT,QGAM] = [ 11.97, 23.94] = [ 40.13,160.53] Ry
 Optimized for a Real-space Cutoff    1.18 Angstroem

   l    n(q)    QCUT    max X(q) W(low)/X(q) W(high)/X(q)  e(spline)
   0      8    11.971    19.460    0.15E-03    0.31E-03    0.25E-06
   0      8    11.971    12.209    0.13E-03    0.29E-03    0.25E-06
   1      8    11.971     4.655    0.22E-03    0.24E-03    0.21E-06
  PAW_PBE Co 02Aug2007                  :
  PAW_PBE Pt 04Feb2005                  :
  PAW_PBE H 15Jun2001                   :

 POSCAR: PtM\(2)
  positions in cartesian coordinates
 exchange correlation table for  LEXCH =        8
   RHO(1)=    0.500       N(1)  =     2000
   RHO(2)=  100.500       N(2)  =     4000

 ion  position               nearest neighbor table
   1  0.785  0.869  0.311-  55 2.42  20 2.42  39 2.42  65 2.63  73 2.63  72 2.63  40 2.64   3 2.64
                             2 2.64  57 2.64  56 2.64  29 2.64
   2  0.035  0.869  0.311-  49 2.42  39 2.42  52 2.42  67 2.63  77 2.63  65 2.63  41 2.64   1 2.64
                            33 2.64   3 2.64  23 2.64  56 2.64
   3  0.035  0.619  0.311-  39 2.42  12 2.42  60 2.42  77 2.63  66 2.63  73 2.64  15 2.64   1 2.64
                            41 2.64  40 2.64   2 2.64   9 2.64
   4  0.787  0.868  0.051-  21 2.41  62 2.41  19 2.41   5 2.64   6 2.64  42 2.64  59 2.64  58 2.64
                            30 2.64
   5  0.037  0.868  0.051-  54 2.41  35 2.41  62 2.41  58 2.64  24 2.64   4 2.64  43 2.64   6 2.64
                            34 2.64
   6  0.037  0.618  0.051-  32 2.41  54 2.41  21 2.41  43 2.64  10 2.64  18 2.64   4 2.64  42 2.64
                             5 2.64
   7  0.620  0.202  0.136-  28 2.41  30 2.41  58 2.41  55 2.49  63 2.50  64 2.51  62 2.64  11 2.64
                            37 2.64  19 2.64  45 2.64  22 2.64
   8  0.370  0.952  0.136-  16 2.41  24 2.41  59 2.41  50 2.50  53 2.50  26 2.51  38 2.64  25 2.64
                            44 2.64  19 2.64  37 2.64  35 2.64
   9  0.035  0.369  0.311-  12 2.42  61 2.42  46 2.42  71 2.63  66 2.63  68 2.64  33 2.64  15 2.64
                            40 2.64   3 2.64  13 2.64  47 2.64
  10  0.037  0.368  0.051-  38 2.41  32 2.41  31 2.41   6 2.64  48 2.64  34 2.64  18 2.64  42 2.64
                            16 2.64
  11  0.870  0.202  0.136-  48 2.41  58 2.41  34 2.41  49 2.49  61 2.50  63 2.51  35 2.64   7 2.64
                            22 2.64  38 2.64  31 2.64  62 2.64
  12  0.952  0.536  0.226-   9 2.42   3 2.42  40 2.42  21 2.50  31 2.50  32 2.50  39 2.64  20 2.64
                            61 2.64  51 2.64  46 2.64  60 2.64
  13  0.285  0.119  0.311-  46 2.42  26 2.42  53 2.42  69 2.63  74 2.63  71 2.64  23 2.64  15 2.64
                            29 2.64  33 2.64  57 2.64   9 2.64
  14  0.535  0.619  0.311-  36 2.42  50 2.42  51 2.42  80 2.63  76 2.63  75 2.63  23 2.64  47 2.64
                            41 2.64  57 2.64  27 2.64  40 2.64
  15  0.285  0.369  0.311-  46 2.42  60 2.42  64 2.42  74 2.63  79 2.63  66 2.64   3 2.64   9 2.64
                            13 2.64  29 2.64  41 2.64  27 2.64
  16  0.287  0.118  0.051-   8 2.41  37 2.41  38 2.41  18 2.64  30 2.64  59 2.64  34 2.64  10 2.64
                            24 2.64
  17  0.536  0.618  0.051-  22 2.41  25 2.41  44 2.41  43 2.64  28 2.64  24 2.64  59 2.64  48 2.64
                            42 2.64
  18  0.287  0.368  0.051-  37 2.41  45 2.41  32 2.41  16 2.64   6 2.64  43 2.64  10 2.64  28 2.64
                            30 2.64
  19  0.620  0.952  0.136-  30 2.41  59 2.41   4 2.41  20 2.50  55 2.50  53 2.51  62 2.64  21 2.64
                            37 2.64   7 2.64  25 2.64   8 2.64
  20  0.702  0.786  0.226-  40 2.42   1 2.42  57 2.42  19 2.50  25 2.50  21 2.51  50 2.64  51 2.64
                            12 2.64  55 2.64  53 2.64  39 2.64
  21  0.870  0.702  0.136-   4 2.41  42 2.41   6 2.41  12 2.50  39 2.50  20 2.51  31 2.64  19 2.64
                            62 2.64  25 2.64  32 2.64  54 2.64
  22  0.620  0.452  0.136-  17 2.41  28 2.41  48 2.41  63 2.49  51 2.50  36 2.51  31 2.64  25 2.64
                            45 2.64  11 2.64  44 2.64   7 2.64
  23  0.285  0.869  0.311-  26 2.42  52 2.42  50 2.42  69 2.63  75 2.63  67 2.64  14 2.64  13 2.64
                            57 2.64   2 2.64  33 2.64  41 2.64
  24  0.286  0.868  0.051-  44 2.41   8 2.41  35 2.41  34 2.64   5 2.64  17 2.64  43 2.64  59 2.64
                            16 2.64
  25  0.620  0.702  0.136-  59 2.41  17 2.41  42 2.41  51 2.50  20 2.50  50 2.51  22 2.64  31 2.64
                             8 2.64  44 2.64  19 2.64  21 2.64
  26  0.202  0.036  0.226-  23 2.42  13 2.42  33 2.42  38 2.49  35 2.50   8 2.51  53 2.64  52 2.64
                            46 2.64  50 2.64  49 2.64  61 2.64
  27  0.535  0.369  0.311-  64 2.42  36 2.42  63 2.42  78 2.63  76 2.63  79 2.63  41 2.64  29 2.64
                            47 2.64  15 2.64  14 2.64  56 2.64
  28  0.537  0.368  0.051-   7 2.41  22 2.41  45 2.41  30 2.64  58 2.64  17 2.64  18 2.64  48 2.64
                            43 2.64
  29  0.535  0.119  0.311-  64 2.42  53 2.42  55 2.42  78 2.63  72 2.63  74 2.63  27 2.64  13 2.64
                            15 2.64  57 2.64  56 2.64   1 2.64
  30  0.537  0.118  0.051-  19 2.41   7 2.41  37 2.41  28 2.64  16 2.64  59 2.64  58 2.64  18 2.64
                             4 2.64
  31  0.870  0.452  0.136-  42 2.41  48 2.41  10 2.41  61 2.50  12 2.50  51 2.51  22 2.64  21 2.64
                            25 2.64  11 2.64  32 2.64  38 2.64
  32  0.120  0.452  0.136-   6 2.41  10 2.41  18 2.41  46 2.49  60 2.50  12 2.50  38 2.64  54 2.64
                            21 2.64  37 2.64  45 2.64  31 2.64
  33  0.035  0.119  0.311-  61 2.42  49 2.42  26 2.42  67 2.63  71 2.63  70 2.63   9 2.64   2 2.64
                            56 2.64  13 2.64  47 2.64  23 2.64
  34  0.037  0.118  0.051-  35 2.41  38 2.41  11 2.41  24 2.64  10 2.64  48 2.64  16 2.64  58 2.64
                             5 2.64
  35  0.120  0.952  0.136-  34 2.41   5 2.41  24 2.41  52 2.50  26 2.50  49 2.50  11 2.64  38 2.64
                            54 2.64  44 2.64   8 2.64  62 2.64
  36  0.452  0.536  0.226-  27 2.42  14 2.42  41 2.42  44 2.50  45 2.50  22 2.51  52 2.64  51 2.64
                            63 2.64  50 2.64  60 2.64  64 2.64
  37  0.370  0.202  0.136-  18 2.41  16 2.41  30 2.41  53 2.49  64 2.50  46 2.51   7 2.64  19 2.64
                             8 2.64  45 2.64  32 2.64  38 2.64
  38  0.120  0.202  0.136-  10 2.41  34 2.41  16 2.41  26 2.49  46 2.50  61 2.51   8 2.64  35 2.64
                            32 2.64  11 2.64  37 2.64  31 2.64
  39  0.952  0.786  0.226-   3 2.42   2 2.42   1 2.42  62 2.50  21 2.50  54 2.50  60 2.64  12 2.64
                            49 2.64  52 2.64  55 2.64  20 2.64
  40  0.785  0.619  0.311-  20 2.42  51 2.42  12 2.42  73 2.63  68 2.63  80 2.64   1 2.64  57 2.64
                             3 2.64   9 2.64  14 2.64  47 2.64
  41  0.285  0.619  0.311-  60 2.42  52 2.42  36 2.42  79 2.63  75 2.63  77 2.64  27 2.64   2 2.64
                             3 2.64  14 2.64  15 2.64  23 2.64
  42  0.787  0.618  0.051-  31 2.41  21 2.41  25 2.41  48 2.64  10 2.64   4 2.64   6 2.64  59 2.64
                            17 2.64
  43  0.287  0.618  0.051-  45 2.41  44 2.41  54 2.41   6 2.64  18 2.64  17 2.64   5 2.64  24 2.64
                            28 2.64
  44  0.370  0.702  0.136-  24 2.41  43 2.41  17 2.41  36 2.50  50 2.50  52 2.51  54 2.64  25 2.64
                            45 2.64   8 2.64  35 2.64  22 2.64
  45  0.370  0.452  0.136-  43 2.41  18 2.41  28 2.41  64 2.49  36 2.50  60 2.51  22 2.64  44 2.64
                            37 2.64   7 2.64  54 2.64  32 2.64
  46  0.202  0.286  0.226-  15 2.42  13 2.42   9 2.42  32 2.49  38 2.50  37 2.51  53 2.64  64 2.64
                            26 2.64  12 2.64  61 2.64  60 2.64
  47  0.785  0.369  0.311-  51 2.42  63 2.42  61 2.42  70 2.63  68 2.63  76 2.63  56 2.64  27 2.64
                            14 2.64   9 2.64  33 2.64  40 2.64
  48  0.787  0.368  0.051-  11 2.41  31 2.41  22 2.41  10 2.64  42 2.64  34 2.64  58 2.64  28 2.64
                            17 2.64
  49  0.952  0.036  0.226-   2 2.42  33 2.42  56 2.42  11 2.49  62 2.50  35 2.50  39 2.64  55 2.64
                            61 2.64  26 2.64  52 2.64  63 2.64
  50  0.452  0.786  0.226-  14 2.42  57 2.42  23 2.42   8 2.50  44 2.50  25 2.51  51 2.64  20 2.64
                            52 2.64  36 2.64  53 2.64  26 2.64
  51  0.702  0.536  0.226-  47 2.42  40 2.42  14 2.42  25 2.50  22 2.50  31 2.51  50 2.64  20 2.64
                            36 2.64  12 2.64  63 2.64  61 2.64
  52  0.202  0.786  0.226-  41 2.42  23 2.42   2 2.42  35 2.50  54 2.50  44 2.51  36 2.64  50 2.64
                            26 2.64  60 2.64  39 2.64  49 2.64
  53  0.452  0.036  0.226-  57 2.42  29 2.42  13 2.42  37 2.49   8 2.50  19 2.51  46 2.64  26 2.64
                            55 2.64  50 2.64  20 2.64  64 2.64
[...]
   -.162E+01 0.224E+01 -.127E+04   0.164E+01 -.224E+01 0.127E+04   -.130E-01 0.127E-01 0.166E+01   -.924E-02 0.364E-03 0.132E-02
   0.182E+00 -.225E+00 0.275E+04   -.183E+00 0.233E+00 -.274E+04   -.430E-03 0.130E-02 -.231E+01   -.331E-02 -.489E-02 -.857E-02
   -.355E+00 0.650E-01 0.275E+04   0.377E+00 -.747E-01 -.274E+04   -.198E-01 0.138E-01 -.225E+01   -.227E-03 -.696E-02 -.887E-02
   -.199E+00 0.195E+00 0.274E+04   0.227E+00 -.201E+00 -.274E+04   -.254E-01 0.620E-02 -.225E+01   0.546E-04 -.240E-02 -.654E-02
   0.905E-01 -.100E+01 0.139E+04   -.915E-01 0.993E+00 -.139E+04   -.685E-03 -.127E-02 -.166E+00   -.147E-02 0.110E-01 -.344E-01
   0.161E+00 0.652E+00 0.139E+04   -.169E+00 -.645E+00 -.139E+04   -.228E-02 -.257E-02 -.155E+00   0.647E-02 -.931E-02 -.368E-01
   -.644E+00 -.368E+00 -.127E+04   0.644E+00 0.336E+00 0.127E+04   0.713E-03 0.308E-01 0.165E+01   0.218E-02 0.247E-02 0.556E-02
   -.128E+00 0.234E+00 0.274E+04   0.122E+00 -.192E+00 -.274E+04   0.594E-02 -.453E-01 -.224E+01   -.753E-03 0.987E-02 -.119E-01
   0.523E+00 -.324E+00 0.139E+04   -.523E+00 0.318E+00 -.139E+04   -.238E-03 0.282E-02 -.158E+00   -.964E-02 0.919E-02 -.361E-01
   -.346E-01 0.181E+01 0.786E+02   0.362E-01 -.184E+01 -.783E+02   -.152E-02 0.302E-01 -.310E+00   -.563E-03 0.362E-02 -.288E-01
   -.232E+01 0.233E+00 -.127E+04   0.230E+01 -.243E+00 0.127E+04   0.230E-01 -.266E-02 0.165E+01   0.545E-02 0.498E-02 0.755E-02
   0.233E+01 -.101E+01 -.129E+04   -.241E+01 0.952E+00 0.129E+04   0.639E-01 0.577E-01 0.170E+01   0.826E-02 0.358E-02 -.844E-02
   -.789E+00 0.552E+00 -.128E+04   0.869E+00 -.516E+00 0.128E+04   -.816E-01 -.359E-01 0.162E+01   -.785E-02 -.401E-02 -.492E-02
   0.304E+00 -.108E+00 0.275E+04   -.277E+00 0.924E-01 -.274E+04   -.292E-01 0.133E-01 -.225E+01   0.425E-02 -.705E-03 -.134E-01
   0.391E-01 -.162E-01 0.275E+04   -.676E-01 0.137E-01 -.274E+04   0.251E-01 0.530E-02 -.228E+01   -.163E-03 -.423E-02 -.312E-02
   -.215E+00 -.311E-01 0.274E+04   0.182E+00 0.170E-01 -.274E+04   0.277E-01 0.321E-02 -.227E+01   0.361E-02 0.731E-02 -.584E-02
   0.894E+00 -.392E+00 0.140E+04   -.897E+00 0.399E+00 -.140E+04   -.110E-02 0.295E-02 -.158E+00   -.295E-02 -.439E-02 -.368E-01
   0.620E+00 -.117E+00 0.804E+02   -.642E+00 0.104E+00 -.802E+02   0.291E-01 0.234E-01 -.325E+00   0.761E-04 -.400E-02 -.274E-01
   0.586E-01 0.472E+00 0.140E+04   -.593E-01 -.471E+00 -.140E+04   0.229E-02 0.533E-02 -.160E+00   -.433E-02 -.465E-02 -.377E-01
   0.258E+00 0.277E+00 0.139E+04   -.275E+00 -.270E+00 -.139E+04   0.311E-02 -.359E-02 -.156E+00   -.132E-02 0.443E-02 -.389E-01
   -.791E-01 0.457E+01 -.128E+04   0.838E-01 -.466E+01 0.127E+04   -.494E-02 0.594E-01 0.162E+01   0.202E-02 0.670E-02 -.170E-02
   -.217E+00 0.424E-01 0.275E+04   0.207E+00 0.206E-02 -.274E+04   0.881E-02 -.301E-01 -.228E+01   0.279E-02 -.103E-01 -.787E-02
   0.926E+00 -.641E-01 0.140E+04   -.932E+00 0.715E-01 -.140E+04   0.756E-02 0.869E-02 -.169E+00   -.128E-02 -.695E-02 -.392E-01
   -.210E+00 -.114E+01 0.810E+02   0.208E+00 0.109E+01 -.808E+02   -.221E-02 0.566E-01 -.306E+00   0.460E-02 -.294E-02 -.268E-01
   -.772E-01 -.820E+00 -.129E+04   0.861E-01 0.901E+00 0.129E+04   -.608E-02 -.731E-01 0.170E+01   -.264E-02 -.106E-01 -.146E-01
   0.168E+00 -.312E+00 0.275E+04   -.175E+00 0.333E+00 -.274E+04   0.234E-02 -.244E-01 -.227E+01   0.136E-02 0.911E-02 -.160E-02
   0.283E+01 -.240E+01 -.127E+04   -.281E+01 0.240E+01 0.127E+04   -.191E-01 0.179E-01 0.167E+01   -.162E-02 -.920E-02 0.186E-02
   0.224E+00 -.359E+00 0.275E+04   -.228E+00 0.398E+00 -.274E+04   -.138E-02 -.355E-01 -.226E+01   0.157E-02 0.109E-02 -.693E-02
   0.401E+00 0.250E-01 0.139E+04   -.402E+00 -.291E-01 -.139E+04   0.848E-03 0.241E-03 -.157E+00   -.687E-02 0.115E-01 -.383E-01
   -.470E+00 0.169E-02 0.139E+04   0.463E+00 -.450E-02 -.139E+04   0.533E-02 0.462E-02 -.157E+00   0.543E-02 0.852E-02 -.359E-01
   0.199E+01 0.559E+00 -.127E+04   -.196E+01 -.565E+00 0.127E+04   -.275E-01 -.618E-02 0.165E+01   -.147E-02 0.524E-02 0.782E-02
   -.974E-01 -.977E-01 0.275E+04   0.577E-01 0.803E-01 -.274E+04   0.312E-01 0.131E-01 -.225E+01   -.246E-02 0.144E-02 -.143E-01
   0.481E-01 0.584E+00 0.139E+04   -.530E-01 -.577E+00 -.139E+04   0.290E-02 -.660E-02 -.155E+00   -.756E-03 -.794E-02 -.382E-01
   0.388E+00 -.373E+00 0.732E+02   -.384E+00 0.379E+00 -.728E+02   -.537E-02 0.555E-02 -.340E+00   -.312E-03 -.454E-02 -.488E-01
   -.327E+00 -.472E+00 0.139E+04   0.320E+00 0.472E+00 -.139E+04   0.770E-03 0.277E-02 -.155E+00   0.933E-02 0.487E-02 -.335E-01
   -.834E-01 -.481E+00 0.139E+04   0.808E-01 0.482E+00 -.139E+04   0.852E-03 0.506E-02 -.988E-01   0.180E-02 0.479E-02 -.395E-01
   -.721E+00 -.596E-01 0.804E+02   0.750E+00 0.495E-01 -.801E+02   -.281E-01 0.228E-01 -.323E+00   -.623E-02 -.658E-02 -.246E-01
   0.113E+01 0.161E+01 -.127E+04   -.115E+01 -.162E+01 0.127E+04   0.611E-02 0.148E-01 0.166E+01   0.974E-02 0.325E-02 0.263E-03
   -.212E+01 -.115E+01 -.129E+04   0.221E+01 0.110E+01 0.129E+04   -.764E-01 0.574E-01 0.169E+01   -.897E-02 0.669E-03 -.636E-02
   0.324E+00 0.123E+00 0.275E+04   -.353E+00 -.130E+00 -.274E+04   0.263E-01 0.706E-02 -.226E+01   -.408E-02 -.108E-02 -.569E-02
   -.129E+00 0.723E-01 0.275E+04   0.143E+00 -.747E-01 -.274E+04   -.155E-01 0.529E-02 -.227E+01   0.421E-02 -.490E-02 -.465E-02
   0.813E-01 -.217E+00 0.139E+04   -.870E-01 0.213E+00 -.139E+04   0.337E-03 0.349E-02 -.156E+00   0.371E-02 -.102E-01 -.443E-01
   0.147E+00 0.185E+00 0.139E+04   -.136E+00 -.176E+00 -.139E+04   -.805E-02 -.221E-02 -.155E+00   0.280E-02 0.190E-02 -.366E-01
   0.552E+00 0.856E+00 0.783E+02   -.503E+00 -.831E+00 -.781E+02   -.627E-01 -.362E-01 -.319E+00   0.959E-02 0.713E-02 -.220E-01
   0.158E+01 0.295E+00 -.128E+04   -.165E+01 -.258E+00 0.128E+04   0.728E-01 -.405E-01 0.162E+01   0.705E-02 -.190E-02 -.388E-02
   0.364E+00 -.149E+00 0.275E+04   -.336E+00 0.127E+00 -.274E+04   -.261E-01 0.112E-01 -.228E+01   -.421E-02 0.107E-01 -.567E-02
   -.140E+01 -.110E+01 0.782E+02   0.143E+01 0.111E+01 -.779E+02   -.149E-01 -.101E-01 -.315E+00   -.617E-02 0.277E-02 -.248E-01
   0.593E+00 -.120E+01 0.735E+02   -.625E+00 0.121E+01 -.732E+02   0.249E-01 0.761E-02 -.319E+00   0.767E-02 -.629E-02 -.377E-01
   -.111E+01 0.795E+00 0.748E+02   0.111E+01 -.825E+00 -.745E+02   0.226E-01 0.200E-01 -.307E+00   -.628E-03 0.236E-02 -.376E-01
   -.676E+00 -.741E+00 0.733E+02   0.705E+00 0.753E+00 -.730E+02   -.273E-01 0.126E-02 -.320E+00   -.297E-02 -.889E-02 -.349E-01
   0.136E+01 -.121E+01 0.783E+02   -.138E+01 0.122E+01 -.780E+02   0.213E-01 -.104E-01 -.315E+00   0.523E-02 0.105E-02 -.247E-01
   -.719E+00 0.983E-01 0.139E+04   0.716E+00 -.847E-01 -.139E+04   -.399E-02 0.392E-02 -.172E+00   0.198E-02 -.103E-01 -.392E-01
   0.123E-01 -.108E+01 0.810E+02   -.422E-02 0.111E+01 -.808E+02   -.242E-02 -.257E-01 -.319E+00   -.450E-02 0.181E-02 -.220E-01
   -.281E+01 -.237E+01 -.127E+04   0.281E+01 0.237E+01 0.127E+04   0.123E-01 0.125E-01 0.167E+01   -.345E-02 -.899E-02 0.468E-02
   0.288E+01 -.675E+00 -.127E+04   -.289E+01 0.654E+00 0.127E+04   -.225E-02 0.241E-01 0.166E+01   0.131E-01 0.427E-02 -.656E-03
   -.334E-01 -.355E+00 0.275E+04   0.267E-01 0.391E+00 -.274E+04   0.661E-02 -.346E-01 -.226E+01   -.337E-02 0.388E-02 -.855E-02
   0.510E+00 -.139E-01 0.275E+04   -.542E+00 0.550E-02 -.274E+04   0.221E-01 0.157E-01 -.226E+01   0.741E-03 -.799E-02 -.545E-02
   0.590E+00 0.984E+00 0.742E+02   -.584E+00 -.101E+01 -.739E+02   -.147E-01 0.249E-01 -.317E+00   0.663E-03 -.273E-02 -.335E-01
[...]
   -.313E+01 0.119E+01 -.292E+04   0.314E+01 -.120E+01 0.292E+04   -.429E-01 -.347E-02 0.210E+01   0.651E-02 -.371E-02 0.164E-01
   -.151E+01 -.308E+01 -.292E+04   0.149E+01 0.308E+01 0.292E+04   0.854E-02 -.307E-01 0.210E+01   0.400E-02 0.219E-01 0.115E-01
   -.241E+01 0.400E+01 -.292E+04   0.243E+01 -.399E+01 0.291E+04   -.321E-01 -.267E-02 0.210E+01   0.554E-02 -.594E-02 0.920E-02
   -.970E-01 0.119E+01 -.292E+04   0.894E-01 -.118E+01 0.292E+04   0.911E-02 -.286E-01 0.208E+01   0.325E-02 0.130E-02 0.922E-02
   -.842E+00 0.852E+00 -.292E+04   0.804E+00 -.834E+00 0.292E+04   0.268E-01 -.350E-01 0.208E+01   0.169E-01 -.558E-02 0.284E-02
   -.474E-01 -.208E+01 -.293E+04   0.533E-01 0.205E+01 0.292E+04   -.772E-03 0.250E-02 0.208E+01   -.237E-02 0.131E-01 0.616E-02
   0.238E+01 0.372E+01 -.292E+04   -.240E+01 -.372E+01 0.291E+04   0.322E-01 -.749E-02 0.209E+01   -.146E-01 -.629E-02 0.449E-02
   0.621E-01 -.137E+02 -.292E+04   -.714E-01 0.146E+02 0.291E+04   0.159E-01 -.990E+00 0.177E+01   -.422E-02 0.166E-01 0.303E-01
   -.112E+02 0.605E+01 -.292E+04   0.120E+02 -.654E+01 0.292E+04   -.832E+00 0.520E+00 0.176E+01   0.168E-01 -.636E-03 0.403E-01
   -.112E+01 -.776E+00 -.291E+04   0.832E+00 0.945E+00 0.291E+04   0.316E+00 -.161E+00 0.222E+01   -.129E-01 -.123E-02 0.130E-01
   0.316E-01 0.553E+00 -.291E+04   -.311E-01 -.865E+00 0.291E+04   0.664E-02 0.331E+00 0.222E+01   0.349E-03 -.275E-01 0.103E-01
   0.107E+02 0.565E+01 -.292E+04   -.116E+02 -.618E+01 0.292E+04   0.921E+00 0.548E+00 0.190E+01   -.175E-01 0.565E-02 0.338E-01
   0.109E+01 -.883E+00 -.291E+04   -.795E+00 0.106E+01 0.291E+04   -.316E+00 -.168E+00 0.223E+01   0.137E-01 0.708E-03 0.133E-01
   0.462E+00 0.358E-01 -.352E+03   -.535E+00 -.659E-01 0.354E+03   0.510E-01 0.194E-01 -.165E+01   -.485E-04 -.574E-03 0.319E-02
   -.164E+00 -.836E-01 -.133E+02   0.835E-13 -.456E-12 0.115E-10   0.169E+00 0.873E-01 0.141E+02   -.227E-01 0.799E-02 -.976E+00

 POSITION                                       TOTAL-FORCE (eV/Angst)
     12.87912      7.94638      6.85015        -0.000587      0.012255     -0.007110
      4.95436      7.94846      6.85263         0.003193      0.007090      0.000236
      3.63708      5.66548      6.85545         0.003962      0.011105     -0.020392
     12.89069      7.93773      1.12741        -0.005136      0.003859      0.004607
      4.96971      7.93912      1.12853         0.002204     -0.003042     -0.002565
      3.64996      5.65178      1.12919         0.002461     -0.002264     -0.002605
      7.60878      1.84336      2.99165        -0.002941      0.002509      0.009252
      8.92835      8.70314      2.99118        -0.003102     -0.005058      0.015129
      2.31858      3.37467      6.85195         0.002571      0.001785     -0.008994
      2.33014      3.36655      1.12948        -0.000991      0.006270     -0.002569
     10.24821      1.84422      2.99131        -0.009136      0.006380      0.014885
     12.88188      4.89957      4.97517        -0.000133      0.000547      0.002301
      3.63555      1.09682      6.85079         0.003491     -0.007746      0.003709
      8.91088      5.65884      6.87535        -0.006485      0.002247     -0.002498
      4.96699      3.38431      6.85979        -0.008992     -0.003756     -0.007465
      3.65135      1.08064      1.12857         0.002055     -0.003340      0.001057
      8.92822      5.65256      1.12711        -0.003463     -0.001587      0.005221
      4.96947      3.36626      1.12979        -0.001891     -0.003655     -0.011559
     11.56837      8.70268      2.99081        -0.007589      0.004874      0.001106
     11.55926      7.18199      4.97336         0.007668      0.005877      0.002385
     12.88773      6.41669      2.99144        -0.002659      0.001456     -0.002546
      8.92877      4.13087      2.99094        -0.015161      0.008446      0.007291
      7.59886      7.95852      6.85520         0.001942     -0.025732      0.014690
      7.60872      7.93941      1.12826         0.000889      0.003929     -0.007571
     10.24764      6.41689      2.99007         0.000504      0.008996      0.008639
      2.32199      0.32279      4.97178         0.001398      0.000723      0.004072
      7.60052      3.38966      6.87758         0.000349      0.002746     -0.027183
      7.61014      3.36516      1.12844        -0.003118      0.005636      0.001836
      6.28438      1.08820      6.85190        -0.006787      0.008164     -0.004113
      6.29074      1.07989      1.12823        -0.003448      0.004869     -0.001381
     11.56758      4.13145      2.99207        -0.006732      0.007246      0.010813
      3.64852      4.13027      2.99330         0.004196      0.009891      0.010255
      1.00201      1.09633      6.84951         0.003325     -0.006044      0.005346
      1.01138      1.08038      1.12855        -0.010786     -0.002978     -0.000658
      6.28784      8.70360      2.99199        -0.002372     -0.007334      0.012647
      7.60277      4.89795      4.98225        -0.000900      0.006888      0.010754
      4.96921      1.84376      2.99252         0.003193      0.007624      0.016750
      2.32865      1.84375      2.99248         0.000138      0.010833      0.027147
     14.20349      7.18204      4.97374        -0.005136      0.005605      0.001064
     11.55882      5.66450      6.85492         0.000216      0.010727     -0.019684
      6.28795      5.65968      6.87440         0.007364      0.001733     -0.004354
     11.56997      5.65227      1.12748        -0.006697     -0.000768      0.000673
      6.28879      5.65201      1.12872         0.002259     -0.002169     -0.000136
      7.60795      6.41722      2.99124        -0.001417     -0.011529      0.010118
      6.28923      4.13040      2.99242         0.005449      0.009029      0.008423
      3.64958      2.61802      4.97464        -0.003733     -0.004775      0.000640
     10.23489      3.38264      6.85807         0.010330     -0.005389     -0.003616
     10.25111      3.36601      1.12793        -0.002469     -0.000343     -0.004619
     10.24017      0.32522      4.97514         0.004389      0.005539     -0.001740
      8.91939      7.17666      4.98150         0.001085      0.009047     -0.009031
     10.23174      4.90375      4.98027         0.017656     -0.008182      0.005350
      6.28401      7.17826      4.98155        -0.001163      0.004394     -0.007307
      4.96253      0.32477      4.97490         0.001514      0.005789     -0.000568
      4.96835      6.41701      2.99223        -0.004829      0.007125      0.001970
      7.60135      0.32455      4.97271         0.001510      0.000825      0.005422
      8.91239      1.08837      6.85281         0.010715      0.005530     -0.003961
     10.24161      7.94894      6.85232         0.001643      0.006816      0.000150
      8.93102      1.07962      1.12774        -0.003274      0.005500      0.000839
     10.25010      7.93928      1.12746        -0.008101     -0.000815     -0.003224
      4.97065      4.90379      4.98077        -0.009092     -0.005387      0.000337
[...]
      6.27447      8.72491      8.99247         0.004371     -0.008899     -0.005832
     11.56558      4.14687      8.99626        -0.027310     -0.019761     -0.006517
      8.91953      8.72569      8.99384        -0.001065     -0.006807     -0.007520
     10.24151      1.85508      8.99181        -0.004771      0.000630     -0.001693
      2.31709      1.86166      8.99596         0.005071     -0.017101      0.001694
     11.55440      8.72174      8.99982         0.003417     -0.021025     -0.001410
     12.87651      6.43307      9.00259         0.002711     -0.010171     -0.003603
      4.95308      1.85699      8.99275         0.005297     -0.006515      0.000375
      7.59675      6.46793      9.05146         0.002155     -0.012798     -0.009155
      8.94827      4.12716      9.05831        -0.003620      0.021535     -0.018418
      4.94028      6.44161      8.99434         0.017330      0.008746      0.000373
      7.59665      1.84213      8.99523         0.007768     -0.011583     -0.003759
      6.24945      4.12997      9.05487         0.000940      0.014155     -0.008697
     10.25381      6.44159      8.99391        -0.006525      0.006804     -0.001334
      7.61851      4.92110     10.05748        -0.022773     -0.011756      0.008317
    total drift:                               -0.016867      0.011716     -0.165758

  FREE ENERGIE OF THE ION-ELECTRON SYSTEM (eV)
  free  energy   TOTEN  =      -553.70125749 eV

  energy  without entropy=     -553.67126649  energy(sigma->0) =     -553.69126049

 d Force = 0.1756526E-02[ 0.774E-03, 0.274E-02]  d Energy = 0.1725312E-02 0.312E-04
 d Force =-0.4385649E+02[-0.439E+02,-0.438E+02]  d Ewald  =-0.4385650E+02 0.795E-05

 Conjugate gradient step on ions:
 trial-energy change:   -0.001725  1 .order   -0.001757   -0.002739   -0.000774
  (g-gl).g = 0.220E-02      g.g   = 0.204E-02  gl.gl    = 0.539E-02
 g(Force)  = 0.204E-02   g(Stress)= 0.000E+00 ortho     =-0.535E-04
 gamma     =   0.40884
 trial     =   1.35808
 opt step  =   1.89312  (harmonic =   1.89312) maximal distance =0.00398339
 next E    =  -553.701441   (d E  =  -0.00191)

 reached required accuracy - stopping structural energy minimisation