 vasp.5.4.4.18Apr17-6-g9f103f2a35 (build Nov 30 2020 22:55:02) complex

 executed on             LinuxIFC date 2023.07.29  12:36:51

 INCAR:
 POTCAR:    PAW_PBE Pt 04Feb2005
 POTCAR:    PAW_PBE Cu 22Jun2005
 POTCAR:    PAW_PBE Ni 02Aug2007
 POTCAR:    PAW_PBE Fe 06Sep2000
 POTCAR:    PAW_PBE Co 02Aug2007
 POTCAR:    PAW_PBE Pt 04Feb2005
   VRHFIN =Pt: s1d9

   TITEL  = PAW_PBE Pt 04Feb2005
   POMASS =  195.080; ZVAL   =   10.000    mass and valenz
   ENMAX  =  230.283; ENMIN  =  172.712 eV

 POTCAR:    PAW_PBE Cu 22Jun2005
   VRHFIN =Cu: d10 p1

   TITEL  = PAW_PBE Cu 22Jun2005
   POMASS =   63.546; ZVAL   =   11.000    mass and valenz
   ENMAX  =  295.446; ENMIN  =  221.585 eV

 POTCAR:    PAW_PBE Ni 02Aug2007
   VRHFIN =Ni:

   TITEL  = PAW_PBE Ni 02Aug2007
   POMASS =   58.690; ZVAL   =   10.000    mass and valenz
   ENMAX  =  269.532; ENMIN  =  202.149 eV

 POTCAR:    PAW_PBE Fe 06Sep2000
   VRHFIN =Fe:  d7 s1

   TITEL  = PAW_PBE Fe 06Sep2000
   POMASS =   55.847; ZVAL   =    8.000    mass and valenz
   ENMAX  =  267.882; ENMIN  =  200.911 eV

 POTCAR:    PAW_PBE Co 02Aug2007
   VRHFIN =Co: d8 s1

   TITEL  = PAW_PBE Co 02Aug2007
   POMASS =   58.933; ZVAL   =    9.000    mass and valenz
   ENMAX  =  267.968; ENMIN  =  200.976 eV

 Optimization of the real space projectors (new method)

 maximal supplied QI-value         = 14.36
 optimisation between [QCUT,QGAM] = [ 11.92, 23.98] = [ 39.79,161.09] Ry
 Optimized for a Real-space Cutoff    1.49 Angstroem

   l    n(q)    QCUT    max X(q) W(low)/X(q) W(high)/X(q)  e(spline)
   2     10    11.920    66.195    0.79E-04    0.18E-03    0.24E-06
   2     10    11.920    64.643    0.81E-04    0.19E-03    0.24E-06
   0     11    11.920    95.520    0.28E-04    0.54E-04    0.18E-06
   0     11    11.920    63.403    0.27E-04    0.52E-04    0.17E-06
   1     10    11.920    19.961    0.18E-04    0.11E-03    0.23E-06
   1     10    11.920    13.289    0.25E-04    0.87E-04    0.19E-06
 Optimization of the real space projectors (new method)

[...]

   l    n(q)    QCUT    max X(q) W(low)/X(q) W(high)/X(q)  e(spline)
   2     10    11.864    80.901    0.13E-03    0.23E-03    0.37E-06
   2     10    11.864    75.754    0.13E-03    0.23E-03    0.38E-06
   0     11    11.864    58.752    0.44E-04    0.11E-04    0.20E-06
   0     11    11.864    30.679    0.36E-04    0.10E-04    0.18E-06
   1     10    11.864    17.977    0.31E-04    0.45E-04    0.10E-06
   1     10    11.864    13.559    0.25E-04    0.37E-04    0.89E-07
 Optimization of the real space projectors (new method)

 maximal supplied QI-value         = 16.25
 optimisation between [QCUT,QGAM] = [ 11.86, 23.89] = [ 39.41,159.82] Ry
 Optimized for a Real-space Cutoff    1.33 Angstroem

   l    n(q)    QCUT    max X(q) W(low)/X(q) W(high)/X(q)  e(spline)
   2      9    11.864    65.824    0.22E-03    0.53E-03    0.26E-06
   2      9    11.864    61.429    0.22E-03    0.53E-03    0.26E-06
   0      9    11.864    56.174    0.21E-03    0.32E-04    0.15E-06
   0      9    11.864    31.263    0.19E-03    0.30E-04    0.14E-06
   1      9    11.864    19.828    0.63E-04    0.30E-03    0.16E-06
   1      9    11.864    15.139    0.49E-04    0.25E-03    0.13E-06
  PAW_PBE Pt 04Feb2005                  :
  PAW_PBE Cu 22Jun2005                  :
  PAW_PBE Ni 02Aug2007                  :
  PAW_PBE Fe 06Sep2000                  :
  PAW_PBE Co 02Aug2007                  :

 POSCAR: 10.56
  positions in direct lattice
  velocities in cartesian coordinates
 exchange correlation table for  LEXCH =        8
   RHO(1)=    0.500       N(1)  =     2000
   RHO(2)=  100.500       N(2)  =     4000

 ion  position               nearest neighbor table
   1  0.787  0.879  0.318-  49 2.62  28 2.63  19 2.63  59 2.65  33 2.65  61 2.66  29 2.67  60 2.68
                             2 2.72  11 2.77   4 2.82  12 2.85
   2  0.042  0.883  0.316-  79 2.55  77 2.59  60 2.62  30 2.65  28 2.65  52 2.66  33 2.68  22 2.69
                             1 2.72   6 2.76   4 2.84  16 2.90
   3  0.279  0.381  0.320-  39 2.56  64 2.57  33 2.59  31 2.63  19 2.70  30 2.71  43 2.71  68 2.72
                             5 2.78  13 2.80  18 2.82  25 2.85
   4  0.874  0.962  0.425-  17 2.63   9 2.63   6 2.64  11 2.64  16 2.64  12 2.65   1 2.82  60 2.82
                             2 2.84
   5  0.121  0.462  0.428-  12 2.62   7 2.63  16 2.64  10 2.64  25 2.66  13 2.67  39 2.73  33 2.73
                             3 2.78
   6  0.124  0.962  0.422-   8 2.63  10 2.64  14 2.64   4 2.64   9 2.64  16 2.65   2 2.76  52 2.78
                            22 2.87
   7  0.873  0.460  0.427-  15 2.62   9 2.63   5 2.63  10 2.64  12 2.65  27 2.65  39 2.69  75 2.77
                            29 2.80
   8  0.374  0.960  0.420-  43 2.60  14 2.61  27 2.62   6 2.63  13 2.63  10 2.64  11 2.64  52 2.69
                            61 2.73
   9  0.873  0.211  0.421-   7 2.63   4 2.63  17 2.63  15 2.63   6 2.64  10 2.66  75 2.69  60 2.72
                            22 2.81
  10  0.125  0.211  0.422-  13 2.62   5 2.64   6 2.64   8 2.64   7 2.64   9 2.66  39 2.67  43 2.72
                            22 2.78
  11  0.624  0.961  0.424-  13 2.63  12 2.64  17 2.64   4 2.64  27 2.64   8 2.64   1 2.77  19 2.83
                            61 2.84
  12  0.874  0.711  0.427-   5 2.62  11 2.64  16 2.64   7 2.65  27 2.65   4 2.65  33 2.70  29 2.82
                             1 2.85
  13  0.374  0.209  0.425-  10 2.62  11 2.63   8 2.63  17 2.65  25 2.66   5 2.67  43 2.77   3 2.80
                            19 2.83
  14  0.375  0.712  0.424-  27 2.61   8 2.61   6 2.64  15 2.65  25 2.65  16 2.66  44 2.71  30 2.77
                            52 2.78
  15  0.625  0.462  0.423-   7 2.62  27 2.63   9 2.63  14 2.65  17 2.65  25 2.65  44 2.70  75 2.73
                            18 2.76
  16  0.124  0.711  0.427-   5 2.64  25 2.64  12 2.64   4 2.64   6 2.65  14 2.66  33 2.68  30 2.83
                             2 2.90
  17  0.624  0.211  0.422-   4 2.63   9 2.63  11 2.64  25 2.65  13 2.65  15 2.65  18 2.76  60 2.78
                            19 2.85
  18  0.548  0.376  0.317-  67 2.56  60 2.59  75 2.60  44 2.65  68 2.66  26 2.66  30 2.70  19 2.73
                            17 2.76  15 2.76   3 2.82  25 2.89
  19  0.534  0.125  0.315-  80 2.55  43 2.56  68 2.57  59 2.61   1 2.63  61 2.64   3 2.70  18 2.73
                            60 2.76  13 2.83  11 2.83  17 2.85
  20  0.547  0.124  0.040-  37 2.55  57 2.56  48 2.58  62 2.64  63 2.68  47 2.68  45 2.68  56 2.70
                            34 2.71
  21  0.121  0.460  0.128-  40 2.52  36 2.53  47 2.53  42 2.60  69 2.61  64 2.62  70 2.64  50 2.64
                            58 2.67  31 2.70  57 2.71  74 2.72
  22  0.043  0.137  0.314-  65 2.51  55 2.53  77 2.57  43 2.58  39 2.58  75 2.61  60 2.68   2 2.69
                            52 2.73  10 2.78   9 2.81   6 2.87  31 3.39
  23  0.042  0.130  0.033-  70 2.58  40 2.60  41 2.61  45 2.62  62 2.64  76 2.64  24 2.69  35 2.73
                            53 2.78
  24  0.130  0.958  0.132-  79 2.51  77 2.54  35 2.57  53 2.57  55 2.58  70 2.62  38 2.64  58 2.64
                            73 2.65  23 2.69  66 2.70  41 2.72
  25  0.374  0.462  0.427-  16 2.64  17 2.65  15 2.65  14 2.65   5 2.66  13 2.66  30 2.84   3 2.85
                            18 2.89
  26  0.455  0.546  0.219-  73 2.50  74 2.54  51 2.56  79 2.61  64 2.63  30 2.65  18 2.66  68 2.67
                            78 2.67  32 2.68  67 2.72  44 2.76
  27  0.622  0.712  0.424-  14 2.61   8 2.62  15 2.63  11 2.64  12 2.65   7 2.65  44 2.69  61 2.79
                            29 2.79
  28  0.956  0.790  0.221-  58 2.57  66 2.57  50 2.58  42 2.59  49 2.61   1 2.63  64 2.63   2 2.65
                            59 2.70  33 2.72  79 2.76  77 2.77
  29  0.794  0.623  0.319-  39 2.54  42 2.56  75 2.58  32 2.62  44 2.64  33 2.65   1 2.67  61 2.67
                            49 2.68  27 2.79   7 2.80  12 2.82
  30  0.292  0.631  0.319-  79 2.57  64 2.61  52 2.61  44 2.62   2 2.65  26 2.65  33 2.66  18 2.70
                             3 2.71  14 2.77  16 2.83  25 2.84
  31  0.203  0.281  0.225-  70 2.52  55 2.56  65 2.57  43 2.60  57 2.60   3 2.63  39 2.67  80 2.70
                            21 2.70  42 2.71  68 2.75  64 2.79  22 3.39
  32  0.706  0.549  0.221-  54 2.53  69 2.56  51 2.58  49 2.59  42 2.60  29 2.62  78 2.62  65 2.63
                            26 2.68  75 2.69  67 2.70  44 2.70
  33  0.040  0.631  0.326-   3 2.59  39 2.64  29 2.65   1 2.65  30 2.66   2 2.68  16 2.68  12 2.70
                            64 2.71  28 2.72   5 2.73  42 2.73
  34  0.797  0.862  0.042-  50 2.38  66 2.51  48 2.53  36 2.55  71 2.56  63 2.61  20 2.71  35 2.76
                            62 2.76
  35  0.056  0.866  0.038-  58 2.54  72 2.55  36 2.56  24 2.57  66 2.62  53 2.65  23 2.73  62 2.73
                            34 2.76
  36  0.046  0.628  0.037-  21 2.53  34 2.55  35 2.56  58 2.58  50 2.61  47 2.63  72 2.64  40 2.69
                            71 2.72
  37  0.627  0.222  0.129-  51 2.51  74 2.51  67 2.52  56 2.53  41 2.55  20 2.55  68 2.56  59 2.56
                            62 2.59  66 2.66  57 2.73  48 2.89
  38  0.382  0.955  0.130-  53 2.47  80 2.48  45 2.49  78 2.53  48 2.54  73 2.55  63 2.55  54 2.56
                            55 2.59  57 2.62  24 2.64  70 2.67
  39  0.035  0.384  0.325-  29 2.54   3 2.56  22 2.58  75 2.59  33 2.64  42 2.66  31 2.67  10 2.67
                             7 2.69   5 2.73  65 2.76
  40  0.031  0.382  0.038-  69 2.44  21 2.52  71 2.53  76 2.56  70 2.57  23 2.60  36 2.69  45 2.78
                            47 2.78
  41  0.872  0.215  0.128-  76 2.45  65 2.52  77 2.53  67 2.54  37 2.55  69 2.57  62 2.57  51 2.59
                            23 2.61  70 2.65  66 2.66  24 2.72
  42  0.955  0.545  0.224-  50 2.56  29 2.56  28 2.59  21 2.60  32 2.60  69 2.61  49 2.63  65 2.64
                            64 2.65  39 2.66  31 2.71  33 2.73
  43  0.296  0.116  0.321-  52 2.53  55 2.54  61 2.56  19 2.56  22 2.58  31 2.60   8 2.60  80 2.66
                             3 2.71  10 2.72  13 2.77
  44  0.540  0.630  0.322-  61 2.56  52 2.58  30 2.62  78 2.64  29 2.64  18 2.65  75 2.66  27 2.69
                            15 2.70  32 2.70  14 2.71  26 2.76
  45  0.295  0.119  0.039-  70 2.49  38 2.49  57 2.57  53 2.60  23 2.62  63 2.64  20 2.68  47 2.75
                            40 2.78
  46  0.548  0.625  0.044-  51 2.38  73 2.39  54 2.41  71 2.56  53 2.56  63 2.58  76 2.59  56 2.62
                            72 2.64
  47  0.296  0.379  0.039-  74 2.41  21 2.53  57 2.61  72 2.61  56 2.62  36 2.63  20 2.68  45 2.75
                            40 2.78
  48  0.625  0.950  0.132-  49 2.40  80 2.48  54 2.48  34 2.53  38 2.54  59 2.55  50 2.56  63 2.57
                            20 2.58  57 2.65  66 2.68  37 2.89
  49  0.706  0.794  0.220-  48 2.40  50 2.48  54 2.49  80 2.53  32 2.59  28 2.61  78 2.61   1 2.62
                            61 2.63  42 2.63  29 2.68  59 2.69
  50  0.866  0.706  0.129-  34 2.38  71 2.42  54 2.48  49 2.48  42 2.56  48 2.56  69 2.58  28 2.58
                            36 2.61  21 2.64  66 2.76  58 2.85
[...]
   -.114E+03 0.482E+01 -.146E+04   0.114E+03 -.474E+01 0.145E+04   0.281E+00 -.907E-01 0.293E+01   0.550E-02 0.572E-02 0.485E-02
   0.671E+01 -.182E+02 -.287E+04   -.673E+01 0.184E+02 0.287E+04   0.173E-01 -.217E+00 0.113E+01   0.479E-02 0.616E-02 -.257E-01
   -.255E+02 -.419E+01 -.296E+04   0.255E+02 0.412E+01 0.296E+04   0.626E-02 0.843E-01 0.977E+00   0.165E-01 0.460E-02 0.210E-01
   0.374E+02 -.455E+01 -.289E+04   -.373E+02 0.437E+01 0.289E+04   -.943E-01 0.104E+00 0.916E+00   -.117E-01 -.184E-02 0.149E-01
   0.310E+02 0.183E+01 -.293E+04   -.310E+02 -.199E+01 0.292E+04   0.196E-01 0.831E-01 0.117E+01   0.443E-02 -.293E-02 0.211E-01
   -.165E+02 0.522E+01 -.290E+04   0.165E+02 -.544E+01 0.290E+04   -.438E-01 0.263E+00 0.164E+01   -.322E-02 -.264E-02 0.154E-01
   0.279E+02 0.253E+02 -.288E+04   -.282E+02 -.250E+02 0.288E+04   0.270E+00 -.285E+00 0.166E+01   -.105E-01 -.143E-01 -.609E-02
   0.252E+02 0.165E+02 -.294E+04   -.251E+02 -.165E+02 0.294E+04   -.397E-01 0.270E-01 0.736E+00   -.479E-02 -.255E-03 0.283E-01
   -.307E+02 -.131E+02 -.288E+04   0.304E+02 0.131E+02 0.288E+04   0.273E+00 -.693E-01 0.948E+00   0.976E-02 0.131E-01 -.203E-01
   0.518E+01 -.461E+02 -.292E+04   -.507E+01 0.458E+02 0.292E+04   -.911E-01 0.292E+00 0.896E+00   0.977E-02 0.174E-01 0.745E-02
   -.493E+02 0.390E+01 -.293E+04   0.492E+02 -.381E+01 0.293E+04   0.697E-01 -.144E+00 0.701E+00   0.127E-01 0.938E-02 -.141E-01
   0.248E+02 0.479E+01 -.295E+04   -.247E+02 -.482E+01 0.295E+04   -.840E-01 0.180E-01 0.973E+00   -.885E-02 0.409E-02 -.491E-02
   0.159E+02 0.363E+02 -.290E+04   -.158E+02 -.363E+02 0.290E+04   -.710E-01 0.353E-02 0.108E+01   -.176E-01 -.575E-03 -.122E-02
   -.642E+01 -.251E+02 -.291E+04   0.648E+01 0.250E+02 0.291E+04   -.790E-01 0.848E-01 0.843E+00   0.341E-03 0.596E-02 -.506E-03
   0.566E+00 0.121E+02 -.287E+04   -.268E+00 -.122E+02 0.286E+04   -.318E+00 0.454E-01 0.130E+01   -.637E-02 -.605E-02 -.355E-01
   0.488E+02 0.476E+02 -.142E+04   -.470E+02 -.487E+02 0.142E+04   -.178E+01 0.109E+01 0.276E+01   -.313E-01 -.264E-02 -.985E-02
   -.908E+02 -.390E+02 -.142E+04   0.904E+02 0.380E+02 0.142E+04   0.313E+00 0.959E+00 0.359E+01   0.104E-01 -.205E-02 0.862E-02
   -.227E+02 -.238E+02 0.300E+04   0.227E+02 0.241E+02 -.299E+04   0.124E-02 -.264E+00 -.196E+01   -.156E-01 -.371E-02 -.195E-01
   -.728E+02 0.226E+02 0.148E+04   0.733E+02 -.222E+02 -.148E+04   -.569E+00 -.332E+00 -.768E-01   0.176E-01 -.127E-01 -.359E-02
   0.100E+03 0.262E+02 -.141E+04   -.101E+03 -.251E+02 0.140E+04   0.560E+00 -.109E+01 0.318E+01   -.805E-02 -.912E-02 0.574E-02
   0.348E+02 0.500E+02 0.303E+04   -.354E+02 -.489E+02 -.303E+04   0.647E+00 -.117E+01 -.214E+01   0.400E-01 -.379E-01 0.574E-02
   0.903E+02 0.294E+01 0.147E+04   -.905E+02 -.416E+01 -.147E+04   0.723E-01 0.126E+01 -.115E+01   0.571E-01 -.212E-01 -.328E-01
   -.187E+02 0.213E+02 -.289E+04   0.185E+02 -.212E+02 0.289E+04   0.215E+00 -.923E-01 0.740E+00   -.100E-01 -.228E-02 -.120E-01
   0.527E+02 0.614E+02 0.188E+02   -.538E+02 -.615E+02 -.204E+02   0.107E+01 -.475E-02 0.172E+01   -.347E-01 0.128E-01 -.273E-01
   -.243E+02 -.125E+02 -.293E+04   0.240E+02 0.127E+02 0.293E+04   0.298E+00 -.264E+00 0.122E+01   -.787E-02 0.109E-01 0.167E-01
   -.660E+02 -.389E+02 0.111E+03   0.664E+02 0.389E+02 -.113E+03   -.351E+00 -.686E-01 0.180E+01   -.183E-03 -.733E-02 0.187E-01
   0.157E+02 -.402E+02 -.150E+04   -.161E+02 0.401E+02 0.150E+04   0.438E+00 0.560E-02 0.235E+01   -.263E-02 0.280E-01 0.611E-02
   0.372E+02 0.562E+02 -.146E+04   -.372E+02 -.554E+02 0.146E+04   0.570E-01 -.772E+00 0.271E+01   -.100E-01 -.156E-01 -.243E-02
   -.792E+02 -.480E+02 0.736E+02   0.793E+02 0.473E+02 -.746E+02   -.164E+00 0.696E+00 0.113E+01   0.888E-02 -.111E-01 -.127E-01
   0.481E+02 0.514E+02 0.856E+01   -.473E+02 -.524E+02 -.934E+01   -.811E+00 0.106E+01 0.837E+00   -.418E-02 0.757E-02 -.116E-01
   -.731E+02 -.725E+02 -.163E+04   0.731E+02 0.722E+02 0.163E+04   0.674E-01 0.517E+00 0.968E+00   0.775E-02 0.997E-02 0.354E-02
   0.102E+02 -.906E+02 0.332E+04   -.106E+02 0.907E+02 -.331E+04   0.357E+00 0.172E-02 -.233E+01   0.239E-03 0.514E-02 -.746E-02
   -.330E+02 -.507E+02 0.329E+04   0.324E+02 0.504E+02 -.328E+04   0.646E+00 0.456E+00 -.291E+01   0.494E-01 -.347E-01 -.241E-02
   -.547E+02 0.439E+02 0.331E+04   0.548E+02 -.437E+02 -.331E+04   -.174E+00 -.307E+00 -.358E+01   0.587E-01 -.132E-01 0.112E-01
   0.518E+02 0.285E+02 0.158E+04   -.517E+02 -.286E+02 -.158E+04   -.713E-01 -.654E-02 -.135E+01   -.383E-01 0.293E-01 0.600E-02
   0.219E+02 -.664E+02 0.167E+04   -.213E+02 0.661E+02 -.167E+04   -.642E+00 0.153E+00 -.874E+00   -.226E-01 -.562E-02 -.304E-01
   0.125E+02 0.187E+02 -.163E+04   -.128E+02 -.191E+02 0.163E+04   0.415E+00 0.338E+00 0.115E+01   0.196E-01 0.154E-02 0.405E-02
   -.319E+02 0.385E+01 0.335E+04   0.303E+02 -.415E+01 -.335E+04   0.153E+01 0.361E+00 -.323E+01   0.400E-01 -.339E-01 0.176E-01
   0.324E+01 0.816E+02 0.162E+04   -.357E+01 -.813E+02 -.162E+04   0.345E+00 -.403E+00 -.112E+01   0.265E-01 -.643E-02 -.268E-02
   -.585E+02 0.183E+02 0.331E+02   0.583E+02 -.179E+02 -.332E+02   0.157E+00 -.361E+00 0.540E-01   0.822E-02 0.255E-03 -.456E-02
   -.706E+02 -.378E+02 -.165E+04   0.704E+02 0.371E+02 0.165E+04   0.230E+00 0.745E+00 0.167E+01   0.140E-01 0.387E-02 -.368E-02
   0.125E+02 0.732E+02 -.164E+04   -.124E+02 -.723E+02 0.164E+04   -.879E-01 -.982E+00 0.833E+00   -.180E-01 0.893E-02 -.477E-02
   -.373E+02 -.244E+01 0.330E+04   0.378E+02 0.196E+01 -.330E+04   -.451E+00 0.478E+00 -.278E+01   -.699E-02 -.217E-01 0.892E-02
   0.207E+02 0.215E+02 0.304E+04   -.205E+02 -.214E+02 -.304E+04   -.129E+00 -.157E+00 -.581E+00   -.714E-01 0.407E-01 0.375E-03
   -.197E+02 0.576E+01 0.297E+04   0.214E+02 -.590E+01 -.297E+04   -.165E+01 0.122E+00 -.214E+01   0.188E-01 0.241E-01 0.178E-01
   -.662E+02 -.115E+03 0.148E+04   0.663E+02 0.115E+03 -.147E+04   -.900E-01 0.544E+00 -.960E+00   -.234E-01 0.682E-02 -.130E-01
   -.652E+02 -.171E+02 -.579E+02   0.645E+02 0.176E+02 0.572E+02   0.760E+00 -.651E+00 0.632E+00   -.149E-02 0.100E-02 0.997E-02
   -.110E+03 -.186E+00 0.148E+04   0.110E+03 0.585E+00 -.148E+04   0.578E-01 -.421E+00 -.419E+00   0.143E-01 -.755E-02 0.137E-01
   0.423E+02 0.328E+02 0.147E+04   -.422E+02 -.324E+02 -.147E+04   -.662E-01 -.382E+00 0.518E-01   -.419E-01 0.369E-01 0.257E-02
   0.738E+02 0.216E+02 -.148E+04   -.735E+02 -.218E+02 0.148E+04   -.430E+00 0.212E+00 0.161E+01   -.462E-02 -.512E-02 -.831E-02
   0.457E+02 -.350E+02 0.303E+04   -.449E+02 0.338E+02 -.303E+04   -.846E+00 0.129E+01 -.195E+01   -.158E-02 -.257E-01 0.809E-02
   0.177E+02 0.358E+02 0.145E+04   -.172E+02 -.357E+02 -.145E+04   -.443E+00 -.165E+00 -.349E+00   -.419E-01 0.149E-01 -.109E-01
   0.792E+02 -.498E+02 0.361E+02   -.790E+02 0.496E+02 -.359E+02   -.190E+00 0.309E+00 -.144E+00   0.939E-02 -.709E-02 -.243E-01
   0.875E+01 0.563E+02 0.244E+04   -.841E+01 -.559E+02 -.244E+04   -.311E+00 -.532E+00 -.278E+01   -.373E-01 0.368E-01 0.342E-02
   -.195E+02 -.501E+02 0.116E+04   0.195E+02 0.505E+02 -.116E+04   -.843E-01 -.338E+00 -.742E+00   -.774E-02 0.115E-01 -.318E-03
   0.215E+02 -.150E+02 0.117E+04   -.212E+02 0.147E+02 -.117E+04   -.399E+00 0.352E+00 -.775E+00   0.391E-01 -.258E-01 -.172E-01
   -.524E+02 -.451E+02 -.247E+02   0.526E+02 0.456E+02 0.243E+02   -.171E+00 -.494E+00 0.315E+00   -.968E-02 0.718E-02 0.179E-01
   0.432E+02 0.141E+02 -.119E+04   -.429E+02 -.139E+02 0.119E+04   -.271E+00 -.227E+00 0.114E+01   -.119E-01 -.155E-01 0.130E-01
[...]
   0.505E+02 0.191E+02 -.708E+02   -.503E+02 -.199E+02 0.715E+02   -.144E+00 0.824E+00 -.775E+00   -.205E-01 0.921E-02 0.291E-03
   -.383E+01 -.142E+02 -.106E+02   0.399E+01 0.136E+02 0.102E+02   -.154E+00 0.516E+00 0.394E+00   -.686E-02 0.160E-01 -.968E-02
   -.409E+02 0.289E+02 0.134E+04   0.408E+02 -.288E+02 -.134E+04   0.264E-01 -.199E-01 -.115E+00   0.167E-01 -.961E-02 0.261E-01
   -.238E+02 -.732E+01 0.133E+04   0.240E+02 0.788E+01 -.133E+04   -.246E+00 -.559E+00 -.951E+00   0.161E-01 -.155E-01 -.507E-02
   -.670E+01 -.928E+00 0.272E+04   0.555E+01 0.140E+01 -.271E+04   0.112E+01 -.467E+00 -.237E+01   -.112E-01 0.149E-01 0.284E-02
   0.348E+02 0.198E+02 0.270E+04   -.339E+02 -.201E+02 -.269E+04   -.820E+00 0.301E+00 -.275E+01   0.175E-01 0.532E-02 0.818E-02
   0.714E+02 0.259E+01 0.132E+04   -.716E+02 -.277E+01 -.132E+04   0.259E+00 0.240E+00 0.229E-01   -.106E-01 -.771E-02 -.410E-01
   0.640E+02 0.290E+02 0.130E+04   -.642E+02 -.289E+02 -.130E+04   0.230E+00 -.113E+00 -.102E+00   -.467E-02 0.189E-01 -.159E-01
   0.549E+02 0.287E+02 -.130E+04   -.552E+02 -.292E+02 0.129E+04   0.298E+00 0.533E+00 0.115E+01   -.514E-02 -.729E-02 -.366E-03
   0.499E+02 0.557E+02 0.274E+04   -.505E+02 -.551E+02 -.274E+04   0.615E+00 -.560E+00 -.177E+01   -.116E-01 -.461E-02 0.822E-03
   0.471E+02 0.301E+02 -.542E+01   -.477E+02 -.295E+02 0.538E+01   0.593E+00 -.585E+00 -.144E-01   0.131E-01 -.160E-01 0.103E-01
   0.219E+02 0.747E+02 -.203E+02   -.218E+02 -.738E+02 0.205E+02   -.870E-01 -.104E+01 -.368E+00   -.180E-01 0.618E-03 -.164E-01
   0.101E+03 0.449E+02 0.275E+02   -.100E+03 -.447E+02 -.277E+02   -.549E+00 -.226E+00 0.139E+00   0.779E-02 -.975E-02 -.108E-01
   -.748E+02 -.106E+03 0.673E+01   0.753E+02 0.106E+03 -.696E+01   -.441E+00 0.347E+00 0.182E+00   -.140E-01 0.130E-01 -.111E-01
   0.451E-01 -.378E+00 -.616E+01   -.682E-12 -.313E-12 -.252E-10   0.260E-01 0.306E+00 0.628E+01   -.467E-01 0.266E-01 -.123E+00

 POSITION                                       TOTAL-FORCE (eV/Angst)
     12.96815      8.02306      6.95196         0.010306     -0.001998     -0.016102
      5.12096      8.06677      6.95723        -0.000129      0.003081     -0.012251
      5.02451      3.46293      7.04430         0.004382      0.002195     -0.004673
     14.30695      8.77911      9.32544        -0.004480     -0.009097      0.017625
      3.74025      4.20901      9.40152         0.002632     -0.017639     -0.020533
      6.40506      8.79160      9.29725         0.009935     -0.033294     -0.021153
     11.67073      4.20868      9.30108         0.006868     -0.031463      0.015239
      9.02672      8.78050      9.22769         0.005011     -0.006465     -0.010670
     10.34994      1.93897      9.27945        -0.003034     -0.002943      0.012224
      2.43269      1.92495      9.31860         0.021602      0.004956     -0.022483
     11.65000      8.78526      9.33655         0.014689     -0.008804      0.008262
     12.98649      6.48604      9.35731         0.008818      0.002921      0.010191
      5.05468      1.92703      9.40899        -0.006279     -0.025395     -0.012950
      7.71702      6.50785      9.38073         0.005899     -0.005956      0.002880
      9.03995      4.22190      9.32519         0.001611     -0.008132      0.027807
      5.06752      6.50078      9.36141         0.011551     -0.010170      0.005228
      7.70923      1.92222      9.34161        -0.001969     -0.002729      0.017188
      7.80963      3.39459      6.98642        -0.017942     -0.011552      0.010283
      6.31601      1.11802      6.92850         0.023276     -0.009325      0.006278
      6.42748      1.11951      0.84379        -0.003263      0.035102      0.008326
      3.74457      4.22498      2.80295         0.004492      0.008522     -0.027061
      1.13875      1.23247      6.89884        -0.014432      0.021739     -0.025410
      1.05351      1.23301      0.75714        -0.003809      0.009997      0.006587
      6.37970      8.73232      2.89580        -0.002289      0.025971      0.014770
      6.38826      4.22271      9.38895         0.017075     -0.003426     -0.005255
      7.71519      4.98986      4.84188        -0.010717     -0.015499      0.000206
     10.33455      6.51048      9.33512        -0.001709     -0.003555     -0.026637
     14.36690      7.24966      4.78751         0.005046     -0.001366     -0.003818
     11.62395      5.70642      7.01596         0.015978     -0.009179     -0.006177
      6.42923      5.78053      7.02156         0.024193     -0.013260      0.008387
      3.72880      2.59487      4.89932         0.002104     -0.003830      0.024588
     10.40714      4.90964      4.85294         0.015961      0.012239      0.002831
      3.72651      5.71657      7.06611         0.007224      0.004047     -0.017430
     13.01076      7.95414      0.82285        -0.019465      0.028326     -0.008766
      5.07062      7.97664      0.75916         0.001914      0.014975     -0.006426
      3.74725      5.77233      0.77268         0.000298      0.003351     -0.012191
      7.73906      1.95923      2.91892         0.007688      0.002796     -0.005276
      9.04575      8.78897      2.87226        -0.005055     -0.013982      0.010169
      2.42526      3.47420      7.05892         0.017932     -0.004540     -0.011115
      2.40788      3.44595      0.73676        -0.012349      0.026558     -0.008226
     10.29842      1.96823      2.88139         0.017481     -0.010174     -0.007849
     13.01351      4.98805      4.94410         0.001181     -0.013995      0.002372
      3.71807      1.10596      7.04155         0.012449     -0.011993     -0.012154
      9.03440      5.77760      7.07025         0.001854     -0.007244     -0.011503
      3.74683      1.15285      0.81959        -0.000782      0.005532      0.003237
      9.06513      5.72471      0.92537        -0.013428      0.020294     -0.011353
      5.21212      3.41637      0.86086        -0.006427      0.009819     -0.011523
     11.65625      8.70496      2.91787        -0.017062      0.000421      0.000923
     11.62151      7.29974      4.90178         0.012177     -0.001035      0.004580
     12.89980      6.49745      2.82364         0.012816     -0.012977     -0.004835
      9.01343      4.18612      2.81919        -0.007470      0.001614     -0.006855
      7.80013      8.01699      6.95830         0.000277     -0.013941      0.004744
      7.81053      7.92859      0.86888        -0.021634     -0.003675      0.015115
     10.31657      6.54831      2.89472         0.012241      0.009048     -0.002036
      2.46166      0.31661      4.92733        -0.001642     -0.009000      0.009630
      7.75154      3.52543      0.86333         0.001731      0.010837      0.000711
      5.10291      1.89984      2.87069        -0.000860      0.016913      0.005403
      5.17349      6.40557      2.77226        -0.030464      0.032735      0.005301
      7.65418      0.39388      4.89233        -0.001812     -0.009708      0.010222
      9.05755      1.15921      7.10716        -0.002062      0.009913      0.021466
[...]
     14.26247      8.83804      2.80295        -0.032530      0.016904     -0.030633
      9.09183      2.62352      4.93970        -0.005470      0.002225      0.003562
      6.39598      2.67997      4.92292        -0.000992     -0.006022     -0.002552
     11.64052      4.17844      2.78900        -0.015650      0.008117      0.006225
      2.34972      1.92500      2.86197         0.001149      0.005505     -0.016466
     11.59075      5.72177      0.94802        -0.018657      0.003731     -0.012090
      6.50379      5.69604      0.91052         0.004210      0.006671      0.010478
      7.71278      6.45493      2.81038        -0.001679      0.018431      0.039077
      6.43155      4.20716      2.83788         0.022332     -0.016674     -0.001150
     10.35844      3.38701      7.00310         0.012422     -0.003886      0.034039
     10.36553      3.54396      0.90454        -0.004287      0.008651     -0.017916
     10.23662      0.46679      4.91587        -0.020893      0.006181      0.030672
      9.06408      7.34028      4.95059        -0.000167     -0.021500      0.006851
      6.48344      7.27349      4.94428         0.014288     -0.007376     -0.007175
      5.04827      0.31035      4.87551        -0.009175      0.010322      0.003406
    total drift:                                0.024324     -0.045087     -0.001555

  FREE ENERGIE OF THE ION-ELECTRON SYSTEM (eV)
  free  energy   TOTEN  =      -511.15542767 eV

  energy  without entropy=     -511.14785336  energy(sigma->0) =     -511.15290290

 d Force = 0.5858988E-02[ 0.331E-02, 0.841E-02]  d Energy = 0.5794080E-02 0.649E-04
 d Force = 0.1255820E+02[ 0.126E+02, 0.126E+02]  d Ewald  = 0.1255822E+02-0.200E-04

 Conjugate gradient step on ions:
 trial-energy change:   -0.005794  1 .order   -0.005859   -0.008410   -0.003308
  (g-gl).g = 0.447E-02      g.g   = 0.525E-02  gl.gl    = 0.136E-01
 g(Force)  = 0.525E-02   g(Stress)= 0.000E+00 ortho     =-0.527E-05
 gamma     =   0.32888
 trial     =   1.60255
 opt step  =   2.80192  (harmonic =   2.64183) maximal distance =0.01064456
 next E    =  -511.156638   (d E  =  -0.00700)

 reached required accuracy - stopping structural energy minimisation