 vasp.5.4.4.18Apr17-6-g9f103f2a35 (build Nov 30 2020 22:55:02) complex

 executed on             LinuxIFC date 2023.09.07  19:57:27

 INCAR:
 POTCAR:    PAW_PBE Pt 04Feb2005
 POTCAR:    PAW_PBE H 15Jun2001
 POTCAR:    PAW_PBE Pt 04Feb2005
   VRHFIN =Pt: s1d9

   TITEL  = PAW_PBE Pt 04Feb2005
   POMASS =  195.080; ZVAL   =   10.000    mass and valenz
   ENMAX  =  230.283; ENMIN  =  172.712 eV

 POTCAR:    PAW_PBE H 15Jun2001
   VRHFIN =H: ultrasoft test

   TITEL  = PAW_PBE H 15Jun2001
   POMASS =    1.000; ZVAL   =    1.000    mass and valenz
   ENMAX  =  250.000; ENMIN  =  200.000 eV

 Optimization of the real space projectors (new method)

 maximal supplied QI-value         = 14.36
 optimisation between [QCUT,QGAM] = [ 11.92, 23.98] = [ 39.79,161.09] Ry
 Optimized for a Real-space Cutoff    1.49 Angstroem

   l    n(q)    QCUT    max X(q) W(low)/X(q) W(high)/X(q)  e(spline)
   2     10    11.920    66.195    0.79E-04    0.18E-03    0.24E-06
   2     10    11.920    64.643    0.81E-04    0.19E-03    0.24E-06
   0     11    11.920    95.520    0.28E-04    0.54E-04    0.18E-06
   0     11    11.920    63.403    0.27E-04    0.52E-04    0.17E-06
   1     10    11.920    19.961    0.18E-04    0.11E-03    0.23E-06
   1     10    11.920    13.289    0.25E-04    0.87E-04    0.19E-06
 Optimization of the real space projectors (new method)

 maximal supplied QI-value         = 34.20
 optimisation between [QCUT,QGAM] = [ 11.97, 23.94] = [ 40.13,160.53] Ry
 Optimized for a Real-space Cutoff    1.18 Angstroem

   l    n(q)    QCUT    max X(q) W(low)/X(q) W(high)/X(q)  e(spline)
   0      8    11.971    19.460    0.15E-03    0.31E-03    0.25E-06
   0      8    11.971    12.209    0.13E-03    0.29E-03    0.25E-06
   1      8    11.971     4.655    0.22E-03    0.24E-03    0.21E-06
  PAW_PBE Pt 04Feb2005                  :
  PAW_PBE H 15Jun2001                   :

 POSCAR: Pt111
  positions in cartesian coordinates
 exchange correlation table for  LEXCH =        8
   RHO(1)=    0.500       N(1)  =     2000
   RHO(2)=  100.500       N(2)  =     4000

 ion  position               nearest neighbor table
   1  0.784  0.869  0.328-  71 2.74  20 2.75  55 2.75  43 2.79   3 2.79  27 2.79   2 2.79  73 2.79
                            56 2.79  72 2.79  35 2.79  34 2.79
   2  0.034  0.869  0.328-  55 2.74  65 2.75  68 2.75  29 2.79   3 2.79  57 2.79  72 2.79   1 2.79
                            23 2.79  47 2.79  39 2.79  27 2.79
   3  0.034  0.619  0.328-  12 2.74  55 2.75  76 2.75   9 2.79   1 2.79   2 2.79  39 2.79  56 2.79
                            28 2.79  57 2.79  15 2.79  35 2.80
   4  0.787  0.867  0.022-   6 2.79  21 2.79   5 2.79  58 2.79  75 2.79  78 2.79  74 2.79  44 2.79
                            19 2.80
   5  0.037  0.868  0.022-  74 2.78   4 2.79  48 2.79  49 2.79  70 2.79  24 2.79  59 2.79   6 2.79
                            78 2.80
   6  0.037  0.618  0.022-  46 2.79  18 2.79   4 2.79  70 2.79  59 2.79  10 2.79  58 2.79   5 2.79
                            21 2.80
   7  0.619  0.202  0.126-  71 2.74  79 2.74  80 2.75  42 2.78  78 2.79  53 2.79  44 2.79  22 2.79
                            11 2.79  61 2.79  19 2.79  74 2.80
   8  0.369  0.952  0.126-  66 2.74  69 2.74  26 2.75  16 2.79  25 2.79  19 2.79  54 2.79  24 2.79
                            49 2.79  60 2.79  53 2.79  75 2.80
   9  0.035  0.369  0.328-  12 2.74  77 2.75  62 2.75   3 2.79  33 2.79  15 2.79  13 2.79  56 2.79
                            47 2.79  63 2.79  30 2.79  28 2.79
  10  0.037  0.368  0.022-  54 2.78  48 2.79  64 2.79  46 2.79  18 2.79   6 2.79  58 2.79  16 2.79
                            45 2.80
  11  0.869  0.202  0.125-  65 2.74  77 2.75  79 2.75  64 2.79  45 2.79  49 2.79  74 2.79   7 2.79
                            22 2.79  54 2.79  78 2.79  48 2.80
  12  0.952  0.536  0.227-  21 2.74   9 2.74   3 2.74  45 2.74  56 2.75  46 2.75  77 2.79  55 2.79
                            20 2.79  67 2.79  76 2.79  62 2.79
  13  0.285  0.119  0.328-  62 2.74  26 2.74  69 2.75  73 2.79  43 2.79  31 2.79  36 2.79  23 2.79
                             9 2.79  47 2.79  15 2.79  33 2.80
  14  0.534  0.619  0.328-  51 2.74  66 2.74  67 2.75  41 2.79  56 2.79  73 2.79  57 2.79  52 2.79
                            23 2.79  63 2.79  38 2.79  37 2.80
  15  0.285  0.369  0.328-  62 2.75  76 2.75  80 2.75  41 2.79  57 2.79   9 2.79  50 2.79  43 2.79
                            36 2.79  13 2.79   3 2.79  28 2.80
  16  0.288  0.118  0.022-   8 2.79  44 2.79  75 2.79  53 2.79  18 2.79  48 2.79  24 2.79  10 2.79
                            54 2.80
  17  0.537  0.618  0.022-  22 2.79  59 2.79  24 2.79  25 2.79  42 2.79  64 2.79  58 2.79  75 2.79
                            60 2.80
  18  0.287  0.368  0.022-  53 2.79   6 2.79  59 2.79  61 2.79  16 2.79  10 2.79  44 2.79  42 2.79
                            46 2.80
  19  0.619  0.952  0.125-  20 2.74  71 2.75  69 2.75  44 2.79   8 2.79  75 2.79  21 2.79  53 2.79
                            25 2.79  78 2.79   7 2.79   4 2.80
  20  0.702  0.786  0.227-  19 2.74  56 2.74  25 2.75   1 2.75  73 2.75  21 2.75  67 2.79  66 2.79
                            69 2.79  12 2.79  71 2.79  55 2.79
  21  0.869  0.702  0.126-  12 2.74  55 2.75  20 2.75   4 2.79  45 2.79  19 2.79  58 2.79  46 2.79
                            70 2.79  78 2.79  25 2.79   6 2.80
  22  0.619  0.452  0.126-  79 2.74  67 2.74  51 2.75  17 2.79  25 2.79  61 2.79  42 2.79  45 2.79
                             7 2.79  11 2.79  60 2.79  64 2.80
  23  0.284  0.869  0.328-  26 2.74  68 2.75  66 2.75  31 2.79  73 2.79  47 2.79  13 2.79  14 2.79
                            57 2.79   2 2.79  37 2.79  29 2.80
  24  0.287  0.868  0.022-  60 2.79  17 2.79  48 2.79   8 2.79   5 2.79  59 2.79  16 2.79  75 2.79
                            49 2.80
  25  0.619  0.702  0.125-  67 2.74  20 2.75  66 2.75   8 2.79  75 2.79  22 2.79  17 2.79  60 2.79
                            19 2.79  45 2.79  21 2.79  58 2.80
  26  0.202  0.036  0.227-  54 2.74  13 2.74  23 2.74  49 2.75  47 2.75   8 2.75  69 2.79  62 2.79
                            77 2.79  66 2.79  65 2.79  68 2.79
  27  0.867  0.953  0.431-  29 2.78   1 2.79  34 2.79  72 2.79  39 2.79  40 2.79  32 2.79   2 2.79
                            35 2.79
  28  0.117  0.453  0.432-  39 2.78  50 2.79   3 2.79  30 2.79  35 2.79  33 2.79  36 2.79   9 2.79
                            15 2.80
  29  0.117  0.953  0.431-  27 2.78  32 2.79   2 2.79  47 2.79  39 2.79  31 2.79  37 2.79  33 2.79
                            23 2.80
  30  0.868  0.453  0.431-  33 2.78  32 2.79  35 2.79  28 2.79  63 2.79   9 2.79  56 2.79  38 2.79
                            52 2.79
  31  0.367  0.953  0.432-  37 2.79  33 2.79  23 2.79  36 2.79  13 2.79  29 2.79  52 2.80  34 2.80
                            73 2.80
  32  0.867  0.203  0.431-  30 2.79  38 2.79  29 2.79  63 2.79  40 2.79  33 2.79  27 2.79  72 2.79
                            47 2.79
  33  0.117  0.203  0.431-  30 2.78  31 2.79  36 2.79   9 2.79  32 2.79  47 2.79  28 2.79  29 2.79
                            13 2.80
  34  0.617  0.953  0.431-  36 2.79  35 2.79  43 2.79  73 2.79  40 2.79  27 2.79  52 2.79   1 2.79
                            31 2.80
  35  0.867  0.703  0.431-  52 2.79  34 2.79  30 2.79  56 2.79  28 2.79   1 2.79  27 2.79  39 2.79
                             3 2.80
  36  0.367  0.203  0.432-  34 2.79  33 2.79  40 2.79  31 2.79  13 2.79  15 2.79  50 2.79  28 2.79
                            43 2.80
  37  0.367  0.703  0.432-  81 1.62  31 2.79  52 2.79  23 2.79  38 2.79  50 2.79  57 2.79  39 2.79
                            29 2.79  14 2.80
  38  0.617  0.453  0.431-  81 1.97  32 2.79  40 2.79  41 2.79  50 2.79  52 2.79  37 2.79  14 2.79
                            30 2.79  63 2.80
  39  0.117  0.703  0.431-  28 2.78  50 2.79  29 2.79   3 2.79  27 2.79   2 2.79  37 2.79  57 2.79
                            35 2.79
  40  0.617  0.203  0.431-  38 2.79  43 2.79  41 2.79  36 2.79  34 2.79  27 2.79  50 2.79  32 2.79
                            72 2.80
  41  0.535  0.369  0.328-  80 2.74  51 2.74  79 2.75  15 2.79  14 2.79  40 2.79  38 2.79  63 2.79
                            72 2.79  57 2.79  43 2.79  50 2.80
  42  0.538  0.367  0.022-   7 2.78  74 2.79  44 2.79  64 2.79  22 2.79  17 2.79  18 2.79  59 2.79
                            61 2.80
  43  0.535  0.119  0.328-  80 2.74  69 2.74  71 2.75   1 2.79  40 2.79  34 2.79  72 2.79  13 2.79
                            15 2.79  41 2.79  73 2.79  36 2.80
  44  0.537  0.118  0.022-  19 2.79  42 2.79  16 2.79  75 2.79   7 2.79  74 2.79   4 2.79  18 2.79
                            53 2.80
  45  0.869  0.452  0.126-  77 2.74  12 2.74  67 2.75  21 2.79  58 2.79  11 2.79  22 2.79  46 2.79
                            25 2.79  64 2.79  54 2.79  10 2.80
  46  0.119  0.452  0.126-  62 2.74  76 2.75  12 2.75   6 2.79  54 2.79  10 2.79  21 2.79  53 2.79
                            45 2.79  70 2.79  61 2.79  18 2.80
  47  0.035  0.119  0.328-  77 2.74  65 2.75  26 2.75  23 2.79  29 2.79  63 2.79  72 2.79  13 2.79
                             9 2.79  33 2.79   2 2.79  32 2.79
  48  0.037  0.118  0.022-  49 2.79  10 2.79   5 2.79  24 2.79  54 2.79  74 2.79  64 2.79  16 2.79
                            11 2.80
  49  0.119  0.952  0.126-  68 2.75  26 2.75  65 2.75  48 2.79  60 2.79   5 2.79  11 2.79  54 2.79
                             8 2.79  70 2.79  78 2.79  24 2.80
  50  0.367  0.453  0.432-  81 2.01  28 2.79  39 2.79  15 2.79  38 2.79  40 2.79  57 2.79  37 2.79
                            36 2.79  41 2.80
  51  0.452  0.536  0.227-  41 2.74  61 2.74  14 2.74  60 2.74  57 2.75  22 2.75  76 2.79  80 2.79
                            66 2.79  68 2.79  67 2.79  79 2.79
  52  0.617  0.703  0.431-  35 2.79  37 2.79  14 2.79  38 2.79  73 2.79  34 2.79  30 2.79  31 2.80
                            56 2.80
  53  0.369  0.202  0.126-  69 2.74  80 2.74  62 2.75  18 2.79  61 2.79  16 2.79  54 2.79   7 2.79
                            19 2.79  46 2.79   8 2.79  44 2.80
  54  0.120  0.202  0.126-  26 2.74  62 2.75  77 2.75  10 2.78  46 2.79  53 2.79   8 2.79  49 2.79
                            48 2.79  11 2.79  45 2.79  16 2.80
  55  0.952  0.786  0.227-   2 2.74  78 2.74   3 2.75  21 2.75   1 2.75  70 2.75  71 2.79  68 2.79
                            12 2.79  76 2.79  65 2.79  20 2.79
  56  0.784  0.619  0.328-  67 2.74  20 2.74  12 2.75  63 2.79  14 2.79  73 2.79   3 2.79  35 2.79
                             9 2.79   1 2.79  30 2.79  52 2.80
  57  0.284  0.619  0.328-  76 2.74  68 2.74  51 2.75  15 2.79   2 2.79  14 2.79  23 2.79  41 2.79
                             3 2.79  50 2.79  37 2.79  39 2.79
  58  0.787  0.618  0.022-  75 2.79  64 2.79  45 2.79   4 2.79  21 2.79  10 2.79   6 2.79  17 2.79
                            25 2.80
  59  0.287  0.618  0.022-  61 2.79  17 2.79  18 2.79   6 2.79  60 2.79  24 2.79   5 2.79  42 2.79
                            70 2.80
  60  0.369  0.702  0.126-  51 2.74  66 2.75  68 2.75  24 2.79  49 2.79  70 2.79  59 2.79  61 2.79
                            25 2.79   8 2.79  22 2.79  17 2.80
  61  0.369  0.452  0.126-  80 2.74  51 2.74  76 2.75  59 2.79  53 2.79  22 2.79  18 2.79  60 2.79
[...]
   -.125E+01 0.105E+01 -.131E+04   0.127E+01 -.105E+01 0.131E+04   -.141E-01 0.118E-02 0.690E+00   0.931E-02 -.811E-02 -.108E-01
   0.556E-01 -.454E+00 0.261E+04   -.380E-01 0.418E+00 -.261E+04   -.324E-01 0.599E-01 -.133E+01   0.494E-03 0.106E-02 0.429E-03
   -.677E+00 0.158E+01 0.261E+04   0.700E+00 -.155E+01 -.261E+04   -.423E-02 -.482E-01 -.133E+01   -.204E-01 0.852E-02 -.465E-03
   -.153E+00 0.262E+00 0.261E+04   0.195E+00 -.266E+00 -.261E+04   -.425E-01 0.262E-01 -.133E+01   -.184E-01 -.115E-01 0.649E-02
   -.881E-01 -.103E+01 0.133E+04   0.837E-01 0.103E+01 -.133E+04   -.544E-02 0.134E-01 -.674E+00   0.593E-02 0.499E-03 0.189E-02
   0.450E+00 0.906E+00 0.133E+04   -.449E+00 -.922E+00 -.133E+04   -.160E-01 -.320E-01 -.667E+00   0.205E-02 0.191E-01 0.230E-01
   0.146E+00 0.520E+00 -.132E+04   -.148E+00 -.493E+00 0.132E+04   0.110E-01 -.113E-01 0.680E+00   -.519E-02 -.125E-01 -.163E-01
   -.834E+00 -.333E+00 0.261E+04   0.819E+00 0.290E+00 -.261E+04   0.257E-01 0.557E-01 -.132E+01   -.369E-02 0.196E-02 0.160E-01
   0.888E+00 -.869E+00 0.133E+04   -.886E+00 0.855E+00 -.133E+04   -.392E-01 0.211E-01 -.658E+00   0.127E-01 0.113E-01 0.110E-01
   0.417E-01 0.119E+00 0.534E+01   -.399E-01 -.126E+00 -.531E+01   0.311E-02 0.225E-01 -.269E-01   -.643E-02 -.115E-01 -.103E-01
   0.647E+00 -.212E+00 -.132E+04   -.628E+00 0.213E+00 0.132E+04   -.676E-02 -.955E-02 0.652E+00   -.116E-01 -.241E-02 -.274E-01
   0.331E+01 0.156E+01 -.134E+04   -.336E+01 -.157E+01 0.133E+04   0.496E-01 0.268E-01 0.626E+00   -.384E-02 -.691E-02 -.152E-01
   -.254E+00 -.127E+00 -.132E+04   0.403E+00 0.221E+00 0.132E+04   -.173E+00 -.100E+00 0.534E+00   0.127E-01 0.399E-02 0.121E-01
   0.872E+00 -.767E+00 0.261E+04   -.853E+00 0.733E+00 -.261E+04   -.426E-01 0.224E-01 -.131E+01   -.103E-02 0.247E-01 0.604E-02
   0.159E+00 0.952E-01 0.261E+04   -.169E+00 -.766E-01 -.261E+04   0.534E-02 0.633E-02 -.134E+01   0.150E-01 -.173E-01 -.136E-03
   -.195E+00 0.148E+00 0.261E+04   0.222E+00 -.119E+00 -.261E+04   -.920E-02 -.296E-01 -.132E+01   -.147E-01 -.698E-02 0.540E-02
   -.438E+00 -.144E+00 0.133E+04   0.426E+00 0.142E+00 -.133E+04   0.187E-01 0.461E-02 -.680E+00   0.346E-02 0.281E-02 -.109E-02
   0.281E+00 0.237E+00 0.746E+01   -.282E+00 -.215E+00 -.747E+01   0.331E-01 0.121E-01 0.247E-03   -.144E-01 -.269E-01 0.821E-02
   0.861E-01 -.114E-01 0.133E+04   -.844E-01 0.219E-01 -.133E+04   0.641E-02 0.160E-01 -.684E+00   -.281E-02 -.215E-01 0.330E-02
   0.101E+01 -.299E+00 0.133E+04   -.103E+01 0.313E+00 -.133E+04   -.228E-01 0.574E-02 -.623E+00   0.169E-01 -.124E-01 0.137E-01
   -.189E+00 0.601E+00 -.132E+04   0.188E+00 -.796E+00 0.132E+04   0.193E-02 0.189E+00 0.544E+00   -.607E-03 0.594E-02 -.361E-01
   0.364E-01 -.844E-01 0.261E+04   -.306E-01 0.390E-01 -.261E+04   -.106E-01 0.454E-01 -.131E+01   0.470E-04 0.126E-01 -.170E-02
   0.595E+00 0.756E+00 0.133E+04   -.624E+00 -.741E+00 -.133E+04   0.115E-01 -.518E-02 -.671E+00   0.167E-01 -.156E-01 0.158E-01
   0.140E+00 0.166E+01 0.402E+01   -.141E+00 -.166E+01 -.406E+01   0.926E-02 -.148E-03 0.959E-02   -.493E-02 0.725E-02 0.276E-01
   0.161E+01 0.839E+00 -.261E+04   -.156E+01 -.830E+00 0.260E+04   -.348E-01 -.191E-01 0.125E+01   -.255E-01 0.269E-02 0.136E-01
   0.429E+01 0.144E+01 -.260E+04   -.427E+01 -.143E+01 0.260E+04   -.347E-01 -.689E-02 0.127E+01   0.540E-02 -.798E-02 -.247E-02
   0.501E+00 -.380E+01 -.260E+04   -.499E+00 0.378E+01 0.260E+04   0.173E-01 0.408E-04 0.128E+01   -.411E-02 0.696E-02 -.222E-01
   -.428E+01 0.123E+01 -.260E+04   0.427E+01 -.123E+01 0.260E+04   0.470E-01 -.352E-02 0.127E+01   -.112E-01 0.244E-03 -.579E-02
   -.651E+00 -.367E+01 -.260E+04   0.638E+00 0.365E+01 0.260E+04   -.696E-02 0.160E-02 0.128E+01   0.116E-01 0.931E-02 -.226E-01
   -.339E+01 0.292E+01 -.260E+04   0.338E+01 -.291E+01 0.260E+04   0.500E-01 -.350E-01 0.128E+01   -.287E-01 0.167E-01 -.750E-02
   -.584E-01 -.129E+00 -.261E+04   0.553E-01 0.119E+00 0.260E+04   0.653E-02 0.263E-02 0.131E+01   0.168E-02 0.111E-01 -.282E-02
   -.152E+01 0.852E+00 -.261E+04   0.150E+01 -.837E+00 0.260E+04   0.381E-01 -.262E-01 0.124E+01   0.108E-01 0.406E-02 0.169E-01
   -.189E+00 -.188E+01 -.261E+04   0.187E+00 0.184E+01 0.260E+04   0.115E-01 0.663E-01 0.125E+01   -.198E-02 0.748E-04 0.117E-01
   0.313E+01 0.278E+01 -.260E+04   -.313E+01 -.277E+01 0.260E+04   -.340E-01 -.314E-01 0.128E+01   0.223E-01 0.172E-01 -.122E-02
   -.503E+00 -.795E+01 -.260E+04   0.488E+00 0.873E+01 0.260E+04   0.286E-01 -.833E+00 0.723E+00   -.570E-02 -.422E-03 0.244E-01
   -.712E+01 0.424E+01 -.260E+04   0.779E+01 -.461E+01 0.260E+04   -.660E+00 0.370E+00 0.747E+00   -.204E-01 -.547E-03 0.124E-01
   -.233E+01 0.134E+01 -.260E+04   0.205E+01 -.115E+01 0.260E+04   0.308E+00 -.177E+00 0.139E+01   -.246E-01 -.563E-02 -.314E-01
   0.753E-01 -.293E+01 -.260E+04   -.750E-01 0.259E+01 0.260E+04   0.900E-02 0.327E+00 0.139E+01   -.551E-02 -.389E-02 -.157E-01
   -.179E-01 -.350E+01 -.133E+04   0.185E-01 0.355E+01 0.133E+04   0.224E-02 -.551E-01 0.632E+00   -.915E-03 0.583E-02 0.371E-02
   0.119E+01 -.151E+01 0.261E+04   -.116E+01 0.146E+01 -.261E+04   -.565E-01 0.926E-01 -.134E+01   0.379E-02 -.160E-01 0.136E-03
   0.124E+00 -.186E+01 -.131E+04   -.953E-01 0.188E+01 0.131E+04   -.786E-02 -.129E-01 0.690E+00   -.107E-01 0.153E-01 0.600E-02
   0.307E+00 -.726E+00 0.261E+04   -.306E+00 0.724E+00 -.261E+04   -.168E-01 0.299E-03 -.132E+01   0.632E-02 0.228E-02 -.355E-03
   0.103E+01 -.219E+00 0.133E+04   -.104E+01 0.225E+00 -.133E+04   -.309E-01 0.711E-02 -.672E+00   0.151E-01 -.114E-01 0.980E-02
   -.964E+00 -.373E+00 0.133E+04   0.979E+00 0.373E+00 -.133E+04   0.373E-01 0.251E-01 -.672E+00   -.241E-01 -.961E-02 0.790E-02
   -.675E+00 -.427E+00 -.132E+04   0.651E+00 0.426E+00 0.132E+04   0.217E-01 -.102E-01 0.656E+00   0.690E-02 0.744E-03 -.331E-01
   -.503E+00 -.343E+00 0.261E+04   0.537E+00 0.313E+00 -.261E+04   -.378E-01 0.127E-01 -.131E+01   -.219E-02 0.270E-01 0.850E-02
   -.281E+00 0.938E+00 0.133E+04   0.293E+00 -.951E+00 -.133E+04   -.436E-02 -.383E-01 -.665E+00   -.493E-02 0.233E-01 0.246E-01
   0.639E+01 0.452E+01 -.260E+04   -.714E+01 -.491E+01 0.260E+04   0.769E+00 0.393E+00 0.844E+00   0.140E-01 -.102E-01 0.915E-03
   -.344E+00 0.300E+00 -.441E+01   0.339E+00 -.306E+00 0.447E+01   0.237E-02 0.156E-02 -.921E-01   0.222E-02 0.427E-02 0.189E-01
   0.290E+01 0.165E+01 -.260E+04   -.260E+01 -.146E+01 0.260E+04   -.314E+00 -.200E+00 0.141E+01   0.200E-01 -.165E-02 -.312E-01
   -.921E+00 -.565E+00 0.133E+04   0.928E+00 0.558E+00 -.133E+04   0.318E-01 0.117E-01 -.681E+00   -.132E-01 0.709E-02 0.765E-02
   0.235E+00 0.123E-01 0.133E+04   -.222E+00 -.433E-01 -.133E+04   -.203E-01 0.693E-02 -.667E+00   -.536E-02 0.241E-01 0.127E-01
   -.252E+00 0.198E+00 0.650E+01   0.244E+00 -.178E+00 -.651E+01   -.242E-01 0.115E-01 -.866E-02   0.144E-01 -.236E-01 0.913E-02
   0.135E+01 0.126E+01 -.131E+04   -.137E+01 -.126E+01 0.131E+04   0.278E-01 0.138E-02 0.689E+00   -.108E-01 -.744E-02 -.102E-01
   -.343E+01 0.155E+01 -.133E+04   0.348E+01 -.157E+01 0.133E+04   -.441E-01 0.305E-01 0.632E+00   0.304E-03 -.744E-02 -.137E-01
   -.332E-01 0.654E+00 0.261E+04   0.139E-01 -.638E+00 -.261E+04   0.101E-01 -.355E-02 -.132E+01   0.150E-01 -.144E-01 0.906E-02
   0.165E+00 0.745E-01 0.261E+04   -.161E+00 -.642E-01 -.261E+04   0.107E-02 0.168E-01 -.134E+01   -.117E-01 -.147E-01 -.260E-02
   -.199E+00 0.143E+01 0.133E+04   0.186E+00 -.143E+01 -.133E+04   0.274E-01 -.253E-01 -.617E+00   0.265E-02 -.642E-02 0.291E-01
[...]
   -.379E+00 0.127E+01 0.145E+01   0.408E+00 -.125E+01 -.150E+01   -.406E-01 -.175E-01 0.441E-02   0.757E-02 0.135E-02 0.273E-01
   -.269E+00 0.136E+00 0.630E+01   0.267E+00 -.136E+00 -.629E+01   0.230E-01 -.124E-01 -.117E-01   -.172E-01 0.820E-02 0.154E-01
   -.105E+01 0.684E+00 0.133E+04   0.107E+01 -.674E+00 -.133E+04   0.119E-01 -.854E-02 -.695E+00   -.164E-01 -.863E-02 0.155E-01
   0.690E-01 -.626E+00 0.660E+01   -.753E-01 0.609E+00 -.660E+01   0.554E-02 -.215E-01 -.870E-02   0.259E-02 0.283E-01 -.331E-03
   -.130E+00 -.178E+01 -.131E+04   0.987E-01 0.179E+01 0.131E+04   0.184E-01 -.142E-01 0.693E+00   0.840E-02 0.144E-01 0.804E-03
   0.210E+01 0.729E+00 -.131E+04   -.210E+01 -.753E+00 0.131E+04   -.834E-02 0.140E-01 0.715E+00   -.160E-01 -.441E-02 -.140E-01
   0.179E+00 -.469E+00 0.261E+04   -.167E+00 0.459E+00 -.261E+04   -.165E-01 0.869E-02 -.132E+01   -.308E-02 0.413E-02 0.226E-02
   0.115E+01 0.278E+00 0.261E+04   -.114E+01 -.280E+00 -.261E+04   -.481E-01 0.280E-02 -.132E+01   0.198E-01 0.503E-02 -.554E-03
   -.119E+01 -.637E-01 0.167E+01   0.119E+01 0.125E-01 -.170E+01   -.136E-01 0.361E-01 0.229E-01   -.321E-02 0.571E-02 0.133E-01
   0.163E+01 -.131E+01 0.428E+01   -.163E+01 0.130E+01 -.429E+01   0.187E-02 0.158E-01 0.635E-02   0.605E-02 -.567E-03 -.265E-02
   0.244E+00 -.720E-01 0.133E+04   -.244E+00 0.698E-01 -.133E+04   -.480E-02 -.114E-01 -.688E+00   -.340E-03 0.755E-02 -.342E-03
   0.108E+01 -.126E+01 0.235E+01   -.104E+01 0.129E+01 -.238E+01   -.354E-01 -.270E-01 0.120E-01   0.314E-02 0.266E-03 0.710E-02
   -.137E+01 -.107E+01 0.137E+01   0.133E+01 0.110E+01 -.140E+01   0.379E-01 -.280E-01 0.109E-01   0.365E-02 -.146E-02 0.115E-01
   0.365E+00 0.246E+00 -.305E+03   -.425E+00 -.293E+00 0.307E+03   0.410E-01 0.293E-01 -.136E+01   0.393E-03 -.256E-02 -.754E-03
   -.582E-01 -.130E+00 0.344E+01   0.772E-13 -.277E-12 -.341E-11   0.136E+00 0.106E+00 -.369E+01   -.814E-01 0.202E-01 0.213E+00

 POSITION                                       TOTAL-FORCE (eV/Angst)
     13.60910      8.40049      7.20574         0.001909      0.010086     -0.004025
      5.23838      8.40437      7.20439         0.022319     -0.013979      0.001207
      3.84539      5.98594      7.20614         0.016625     -0.001367     -0.010556
     13.62812      8.38318      0.47920        -0.014453      0.024735      0.009027
      5.25596      8.39025      0.48264        -0.003248     -0.011512     -0.014799
      3.86159      5.96923      0.48496        -0.019120      0.010695     -0.022696
      8.03915      1.94977      2.76124        -0.003989      0.014968      0.023740
      9.43429      9.19846      2.76167        -0.012529     -0.028801      0.013932
      2.44939      3.57139      7.20746         0.003226      0.002227      0.005136
      2.46446      3.55281      0.48563         0.005876      0.014268     -0.009579
     10.82974      1.95139      2.75986        -0.024365      0.018896      0.024721
     13.61258      5.17591      4.98544        -0.001888      0.002471      0.002431
      3.84590      1.15695      7.20805         0.001085     -0.010889     -0.013645
      9.42068      5.98670      7.23554        -0.006771     -0.002053     -0.025356
      5.24831      3.57588      7.21711        -0.007676     -0.001021     -0.002827
      3.86589      1.13666      0.48380        -0.023672      0.013161     -0.002315
      9.43734      5.96985      0.48173         0.009745      0.007862     -0.009245
      5.25527      3.55579      0.48514         0.002577     -0.006685     -0.021665
     12.22217      9.19843      2.75978         0.010483      0.005397      0.016991
     12.21497      7.59108      4.98248         0.015870      0.006193     -0.001915
     13.61659      6.78244      2.76146         0.005675      0.004380      0.015231
      9.43258      4.36731      2.76164        -0.021954      0.007058      0.049365
      8.02972      8.39911      7.21481        -0.000007     -0.003646      0.012023
      8.04638      8.38561      0.48166        -0.005668      0.013042     -0.013430
     10.82462      6.78316      2.75954        -0.001522     -0.005283      0.024130
      2.45344      0.34515      4.98520         0.003396      0.015803     -0.009309
     15.00185      9.21459      9.48736        -0.015088     -0.007184      0.018747
      3.83622      4.38284      9.48935        -0.008629     -0.005781      0.002241
      6.62397      9.22603      9.48644         0.014927     -0.008116      0.012389
     12.21745      4.38195      9.49000         0.019264     -0.007514     -0.000683
      9.42936      9.22546      9.48666        -0.008211     -0.008428      0.009253
     10.81535      1.96117      9.48837         0.017667     -0.003277      0.010739
      2.44669      1.96660      9.48358         0.005241      0.003929      0.014284
     12.21140      9.21559      9.48712         0.019772     -0.006775      0.015264
     13.60579      6.79277      9.48749         0.007350      0.024016      0.018947
      5.23744      1.96218      9.48853        -0.007181     -0.001588      0.012111
      8.02465      6.85903      9.53964         0.007989     -0.032359     -0.020500
      9.46289      4.36223      9.53911         0.003874     -0.013474     -0.013058
      5.21242      6.81411      9.48674        -0.005512      0.003888      0.007860
      8.02628      1.94090      9.48965         0.003904     -0.018324     -0.001155
      8.03013      3.57535      7.23457         0.002076      0.004134     -0.017537
      8.04869      3.54957      0.48189        -0.019637      0.027207     -0.004681
      6.63561      1.15407      7.20625         0.011511      0.016195     -0.010688
      6.65291      1.13757      0.48098        -0.009900      0.001344     -0.009279
     12.22253      4.36773      2.76294        -0.027938      0.001826      0.013096
      3.85283      4.36688      2.76468         0.026748      0.014906      0.014595
      1.05319      1.15679      7.20728         0.005839     -0.010576     -0.012734
      1.07392      1.13749      0.48183        -0.005866      0.010527     -0.001161
      6.64378      9.20014      2.76214         0.002234     -0.027941      0.017697
      6.59126      4.36498      9.53796         0.008179     -0.018040     -0.008977
      8.03309      5.17741      4.99947        -0.000147     -0.000334     -0.016053
     10.84105      6.81496      9.48683         0.008331     -0.004603      0.008122
      5.24989      1.95160      2.76386         0.025516      0.012083      0.004917
      2.46066      1.95048      2.76316        -0.013228      0.000202     -0.071664
     15.00916      7.59185      4.98392        -0.016342      0.007415     -0.004009
     12.21332      5.98581      7.20608        -0.010826     -0.003551     -0.011400
      6.63886      5.98682      7.23439         0.011310      0.000763     -0.020685
     12.22952      5.97081      0.48135         0.005612     -0.002062     -0.010166
      6.64996      5.96918      0.48330        -0.007364      0.012646     -0.003706
      8.03515      6.78375      2.76245         0.017336     -0.026066      0.051136
[...]
     10.81715      5.17714      4.98868         0.019751     -0.010330     -0.004308
      6.64042      7.59039      4.99003        -0.002843      0.006914     -0.013861
      5.24186      0.34553      4.98363         0.003542     -0.003492      0.014554
      5.24677      6.78433      2.76317         0.014591     -0.006463      0.007175
      8.03261      0.34493      4.98402         0.002614     -0.007507     -0.009189
      9.42332      1.15399      7.20596        -0.004823      0.014511     -0.008590
     10.82123      8.40380      7.20362        -0.019571     -0.014302      0.007281
      9.44294      1.13685      0.47993        -0.007746      0.002946     -0.006793
     10.83917      8.38666      0.47885        -0.020695      0.006497     -0.006185
      5.24890      5.17740      4.98948        -0.016333     -0.010300      0.000580
     12.21792      2.76043      4.98484         0.006206      0.005809     -0.005344
     15.01290      9.19969      2.76122        -0.004457     -0.005607      0.010062
      9.42676      2.76399      4.98885         0.004740     -0.001366     -0.012776
      6.64083      2.76442      4.99012        -0.002845     -0.002541     -0.010467
      8.04258      5.20912     10.38729        -0.018618     -0.019797     -0.016383
    total drift:                               -0.003824     -0.003178     -0.037793

  FREE ENERGIE OF THE ION-ELECTRON SYSTEM (eV)
  free  energy   TOTEN  =      -517.96388721 eV

  energy  without entropy=     -518.11345704  energy(sigma->0) =     -518.01374382

 d Force = 0.2145471E-02[ 0.837E-03, 0.345E-02]  d Energy = 0.2174780E-02-0.293E-04
 d Force = 0.5371673E+01[ 0.536E+01, 0.538E+01]  d Ewald  = 0.5371654E+01 0.189E-04

 Conjugate gradient step on ions:
 trial-energy change:   -0.002175  1 .order   -0.002145   -0.003454   -0.000837
  (g-gl).g = 0.285E-02      g.g   = 0.253E-02  gl.gl    = 0.431E-02
 g(Force)  = 0.253E-02   g(Stress)= 0.000E+00 ortho     =-0.338E-03
 gamma     =   0.66285
 trial     =   1.49901
 opt step  =   1.97878  (harmonic =   1.97878) maximal distance =0.00561240
 next E    =  -517.963992   (d E  =  -0.00228)

 reached required accuracy - stopping structural energy minimisation