 vasp.5.4.4.18Apr17-6-g9f103f2a35 (build Nov 30 2020 22:55:02) complex

 executed on             LinuxIFC date 2023.09.11  18:28:40

 INCAR:
 POTCAR:    PAW_PBE Fe 06Sep2000
 POTCAR:    PAW_PBE Pt 04Feb2005
 POTCAR:    PAW_PBE H 15Jun2001

 POTCAR:    PAW_PBE Fe 06Sep2000
   VRHFIN =Fe:  d7 s1

   TITEL  = PAW_PBE Fe 06Sep2000
   POMASS =   55.847; ZVAL   =    8.000    mass and valenz
   ENMAX  =  267.882; ENMIN  =  200.911 eV

 POTCAR:    PAW_PBE Pt 04Feb2005
   VRHFIN =Pt: s1d9

   TITEL  = PAW_PBE Pt 04Feb2005
   POMASS =  195.080; ZVAL   =   10.000    mass and valenz
   ENMAX  =  230.283; ENMIN  =  172.712 eV

 POTCAR:    PAW_PBE H 15Jun2001
   VRHFIN =H: ultrasoft test

   TITEL  = PAW_PBE H 15Jun2001
   POMASS =    1.000; ZVAL   =    1.000    mass and valenz
   ENMAX  =  250.000; ENMIN  =  200.000 eV

 Optimization of the real space projectors (new method)

 maximal supplied QI-value         = 16.25
 optimisation between [QCUT,QGAM] = [ 11.86, 23.89] = [ 39.41,159.82] Ry
 Optimized for a Real-space Cutoff    1.49 Angstroem

   l    n(q)    QCUT    max X(q) W(low)/X(q) W(high)/X(q)  e(spline)
   2     10    11.864    80.901    0.13E-03    0.23E-03    0.37E-06
   2     10    11.864    75.754    0.13E-03    0.23E-03    0.38E-06
   0     11    11.864    58.752    0.44E-04    0.11E-04    0.20E-06
   0     11    11.864    30.679    0.36E-04    0.10E-04    0.18E-06
   1     10    11.864    17.977    0.31E-04    0.45E-04    0.10E-06
   1     10    11.864    13.559    0.25E-04    0.37E-04    0.89E-07
 Optimization of the real space projectors (new method)

[...]

   l    n(q)    QCUT    max X(q) W(low)/X(q) W(high)/X(q)  e(spline)
   2     10    11.920    66.195    0.79E-04    0.18E-03    0.24E-06
   2     10    11.920    64.643    0.81E-04    0.19E-03    0.24E-06
   0     11    11.920    95.520    0.28E-04    0.54E-04    0.18E-06
   0     11    11.920    63.403    0.27E-04    0.52E-04    0.17E-06
   1     10    11.920    19.961    0.18E-04    0.11E-03    0.23E-06
   1     10    11.920    13.289    0.25E-04    0.87E-04    0.19E-06
 Optimization of the real space projectors (new method)

 maximal supplied QI-value         = 34.20
 optimisation between [QCUT,QGAM] = [ 11.97, 23.94] = [ 40.13,160.53] Ry
 Optimized for a Real-space Cutoff    1.18 Angstroem

   l    n(q)    QCUT    max X(q) W(low)/X(q) W(high)/X(q)  e(spline)
   0      8    11.971    19.460    0.15E-03    0.31E-03    0.25E-06
   0      8    11.971    12.209    0.13E-03    0.29E-03    0.25E-06
   1      8    11.971     4.655    0.22E-03    0.24E-03    0.21E-06
  PAW_PBE Fe 06Sep2000                  :
  PAW_PBE Pt 04Feb2005                  :
  PAW_PBE H 15Jun2001                   :

 POSCAR: PtM\(2)
  positions in cartesian coordinates
 exchange correlation table for  LEXCH =        8
   RHO(1)=    0.500       N(1)  =     2000
   RHO(2)=  100.500       N(2)  =     4000

 ion  position               nearest neighbor table
   1  0.795  0.881  0.309-  55 2.41  39 2.44  20 2.56  56 2.59  72 2.62  73 2.62   2 2.64  65 2.68
                            29 2.72   3 2.73  40 2.74  57 2.80
   2  0.047  0.875  0.319-  49 2.46  23 2.52  52 2.53  65 2.59   3 2.59  67 2.61  39 2.61  33 2.62
                             1 2.64  77 2.66  41 2.66  56 2.67
   3  0.056  0.625  0.314-  39 2.45  60 2.47  41 2.53  12 2.57  73 2.57  15 2.59   2 2.59  66 2.65
                            77 2.67   9 2.69   1 2.73  40 2.80
   4  0.803  0.862  0.045-  21 2.49  19 2.50   5 2.52  62 2.56  58 2.61   6 2.66  42 2.67  59 2.69
                            30 2.87
   5  0.040  0.862  0.053-  62 2.43  54 2.47  35 2.51   4 2.52  24 2.55  43 2.60  58 2.63  34 2.64
                             6 2.65
   6  0.051  0.606  0.043-  43 2.49  32 2.50  21 2.51  18 2.51  54 2.52  42 2.52   5 2.65   4 2.66
                            10 2.67
   7  0.618  0.209  0.135-  64 2.41  55 2.44  63 2.45  58 2.46  30 2.48  28 2.48  37 2.59  22 2.60
                            19 2.61  45 2.63  11 2.70  62 2.75
   8  0.377  0.952  0.132-  59 2.39  50 2.46  24 2.48  53 2.48  16 2.48  26 2.56  38 2.58  19 2.63
                            35 2.65  25 2.66  37 2.75  44 2.78
   9  0.045  0.376  0.315-  12 2.47  61 2.49  46 2.54  13 2.57  68 2.57  66 2.60  71 2.64  15 2.65
                            40 2.65  33 2.66  47 2.69   3 2.69
  10  0.051  0.353  0.049-  38 2.44  16 2.47  31 2.50  32 2.53  42 2.58  18 2.60  34 2.62  48 2.66
                             6 2.67
  11  0.880  0.196  0.141-  63 2.38  49 2.44  34 2.46  48 2.46  61 2.47  58 2.51  62 2.64  31 2.67
                             7 2.70  38 2.71  35 2.71  22 2.73
  12  0.971  0.532  0.224-  31 2.45  21 2.46  40 2.46   9 2.47  32 2.48  46 2.56   3 2.57  60 2.59
                            39 2.62  61 2.65  20 2.74  51 2.77
  13  0.287  0.132  0.315-  46 2.49  26 2.49   9 2.57  69 2.60  53 2.61  33 2.61  57 2.62  15 2.62
                            71 2.63  74 2.63  29 2.63  23 2.72
  14  0.531  0.625  0.314-  41 2.51  36 2.54  50 2.54  51 2.59  27 2.61  80 2.61  23 2.61  76 2.68
                            57 2.69  47 2.72  40 2.75  75 2.80
  15  0.296  0.375  0.318-  60 2.44  29 2.53  74 2.58  64 2.58  41 2.59   3 2.59  46 2.59  66 2.60
                            27 2.60  13 2.62   9 2.65  79 2.65
  16  0.289  0.123  0.044-  10 2.47   8 2.48  38 2.52  37 2.54  34 2.57  18 2.59  59 2.60  24 2.64
                            30 2.65
  17  0.528  0.627  0.045-  44 2.35  25 2.43  22 2.51  28 2.66  43 2.66  24 2.73  59 2.74  48 2.82
                            42 2.90
  18  0.289  0.369  0.048-  32 2.36  37 2.37  45 2.39   6 2.51  30 2.53  43 2.55  16 2.59  10 2.60
                            28 2.67
  19  0.623  0.959  0.131-  59 2.39  20 2.46  53 2.47   4 2.50  30 2.51  55 2.54   7 2.61   8 2.63
                            62 2.64  37 2.70  25 2.71  21 2.79
  20  0.709  0.789  0.218-  21 2.45  19 2.46  40 2.48  25 2.51  57 2.54   1 2.56  39 2.69  55 2.69
                            53 2.70  50 2.71  51 2.71  12 2.74
  21  0.887  0.695  0.135-  20 2.45  12 2.46  42 2.48  39 2.48   4 2.49   6 2.51  54 2.56  62 2.62
                            31 2.64  32 2.65  25 2.71  19 2.79
  22  0.620  0.454  0.134-  48 2.40  51 2.46  36 2.46  63 2.47  28 2.47  17 2.51  44 2.58   7 2.60
                            25 2.65  45 2.69  11 2.73  31 2.75
  23  0.286  0.875  0.317-  26 2.46  52 2.52   2 2.52  69 2.58  33 2.59  14 2.61  57 2.62  67 2.63
                            41 2.64  50 2.69  13 2.72  75 2.75
  24  0.269  0.885  0.046-  34 2.27  35 2.45   8 2.48  44 2.54   5 2.55  16 2.64  17 2.73  43 2.79
                            59 2.83
  25  0.629  0.700  0.128-  17 2.43  59 2.45  42 2.48  20 2.51  50 2.52  51 2.55  22 2.65   8 2.66
                            31 2.69  21 2.71  19 2.71  44 2.76
  26  0.217  0.032  0.227-  38 2.45  23 2.46  35 2.46  13 2.49  33 2.55   8 2.56  53 2.59  50 2.61
                            61 2.66  49 2.69  46 2.71  52 2.74
  27  0.544  0.372  0.316-  36 2.48  29 2.55  63 2.56  64 2.58  78 2.58  15 2.60  14 2.61  56 2.61
                            41 2.62  47 2.63  76 2.63  79 2.74
  28  0.541  0.369  0.044-  22 2.47   7 2.48  30 2.51  45 2.54  17 2.66  48 2.66  43 2.66  18 2.67
                            58 2.69
  29  0.535  0.135  0.313-  64 2.41  55 2.52  15 2.53  27 2.55  72 2.58  53 2.58  13 2.63  78 2.64
                            74 2.64  56 2.69   1 2.72  57 2.72
  30  0.534  0.136  0.044-   7 2.48  37 2.50  28 2.51  19 2.51  18 2.53  58 2.63  16 2.65  59 2.67
                             4 2.87
  31  0.883  0.447  0.138-  51 2.44  61 2.45  12 2.45  48 2.46  42 2.49  10 2.50  21 2.64  38 2.64
                            11 2.67  25 2.69  32 2.71  22 2.75
  32  0.140  0.447  0.136-  18 2.36  46 2.40  45 2.41  37 2.43  60 2.45  54 2.45  12 2.48   6 2.50
                            10 2.53  21 2.65  38 2.65  31 2.71
  33  0.044  0.124  0.318-  61 2.48  49 2.52  26 2.55  71 2.59  23 2.59  70 2.61  13 2.61  67 2.62
                             2 2.62  56 2.63  47 2.64   9 2.66
  34  0.059  0.102  0.058-  24 2.27  38 2.40  35 2.40  11 2.46  16 2.57  10 2.62   5 2.64  58 2.75
                            48 2.77
  35  0.134  0.938  0.142-  34 2.40  52 2.41  24 2.45  26 2.46  49 2.48   5 2.51  44 2.56   8 2.65
                            62 2.66  54 2.70  11 2.71  38 2.76
  36  0.459  0.525  0.223-  22 2.46  27 2.48  45 2.49  64 2.53  60 2.53  14 2.54  44 2.56  63 2.58
                            52 2.60  41 2.63  51 2.67  50 2.69
  37  0.369  0.216  0.135-  18 2.37  46 2.41  53 2.42  64 2.42  32 2.43  45 2.49  30 2.50  16 2.54
                            38 2.57   7 2.59  19 2.70   8 2.75
  38  0.135  0.199  0.139-  34 2.40  46 2.41  10 2.44  26 2.45  61 2.48  16 2.52  37 2.57   8 2.58
                            31 2.64  32 2.65  11 2.71  35 2.76
  39  0.967  0.782  0.224-  62 2.39   1 2.44   3 2.45  21 2.48  54 2.48  52 2.59   2 2.61  12 2.62
                            49 2.64  20 2.69  60 2.71  55 2.77
  40  0.792  0.623  0.307-  12 2.46  51 2.46  20 2.48  73 2.63  80 2.64   9 2.65  47 2.65  68 2.69
                            57 2.74   1 2.74  14 2.75   3 2.80
  41  0.297  0.620  0.322-  52 2.50  14 2.51   3 2.53  15 2.59  27 2.62  79 2.63  36 2.63  23 2.64
                            60 2.64  77 2.66   2 2.66  75 2.70
  42  0.814  0.604  0.046-  21 2.48  25 2.48  31 2.49   6 2.52  10 2.58  48 2.65   4 2.67  17 2.90
                            59 2.92
  43  0.283  0.614  0.042-  44 2.46  54 2.47   6 2.49  45 2.49  18 2.55   5 2.60  28 2.66  17 2.66
                            24 2.79
  44  0.371  0.692  0.130-  17 2.35  43 2.46  50 2.51  54 2.54  24 2.54  45 2.55  36 2.56  35 2.56
                            22 2.58  52 2.59  25 2.76   8 2.78
  45  0.365  0.454  0.134-  18 2.39  54 2.41  32 2.41  60 2.42  37 2.49  43 2.49  36 2.49  64 2.49
                            28 2.54  44 2.55   7 2.63  22 2.69
  46  0.213  0.291  0.223-  32 2.40  37 2.41  38 2.41  13 2.49  60 2.49   9 2.54  12 2.56  53 2.57
                            64 2.57  15 2.59  61 2.66  26 2.71
  47  0.793  0.372  0.314-  61 2.48  51 2.52  63 2.55  56 2.59  68 2.59  27 2.63  70 2.63  33 2.64
                            76 2.64  40 2.65   9 2.69  14 2.72
  48  0.796  0.362  0.053-  22 2.40  31 2.46  11 2.46  58 2.65  42 2.65  10 2.66  28 2.66  34 2.77
                            17 2.82
  49  0.960  0.035  0.229-  11 2.44  56 2.45   2 2.46  35 2.48  62 2.49  33 2.52  55 2.64  39 2.64
                            61 2.66  63 2.66  26 2.69  52 2.73
  50  0.457  0.781  0.218-   8 2.46  57 2.51  44 2.51  25 2.52  14 2.54  52 2.60  26 2.61  51 2.63
                            36 2.69  23 2.69  20 2.71  53 2.78
  51  0.707  0.534  0.221-  31 2.44  22 2.46  40 2.46  47 2.52  25 2.55  14 2.59  63 2.60  50 2.63
                            36 2.67  61 2.68  20 2.71  12 2.77
  52  0.216  0.773  0.228-  35 2.41  41 2.50  23 2.52   2 2.53  54 2.56  39 2.59  44 2.59  36 2.60
                            50 2.60  60 2.62  49 2.73  26 2.74
  53  0.454  0.046  0.219-  37 2.42  57 2.45  19 2.47   8 2.48  64 2.56  46 2.57  29 2.58  26 2.59
                            13 2.61  55 2.66  20 2.70  50 2.78
[...]
      7.69555      0.41234      4.90092        -0.228563     -0.079817      0.044332
      9.04739      1.15567      6.94833         0.024740      0.207741      0.014080
     10.24763      8.05001      6.74175        -0.098498      0.004454     -0.031463
      8.97334      1.03372      1.11512        -0.223144      0.223075     -0.134930
     10.33791      8.05446      1.01655        -0.254897     -0.014097     -0.111644
      5.08924      4.77856      4.97019         0.033588      0.182754      0.271230
[...]
     11.67294      4.19810      8.98450        -0.002555      0.078746     -0.031765
      9.02751      8.79067      9.01032         0.031471     -0.043348      0.009692
     10.33775      1.91364      9.08510         0.057864     -0.042487      0.043745
      2.42219      1.92136      9.09242         0.029315      0.006001      0.038603
     11.65600      8.76698      8.88972        -0.016840      0.021619     -0.015257
     12.98496      6.49291      8.88314        -0.058314     -0.010647     -0.002166
      5.06285      1.90102      9.08230        -0.002943      0.014720     -0.029861
      7.70198      6.51937      9.29356        -0.044100      0.012371     -0.053283
      9.03528      4.17454      9.08292         0.043080     -0.046988     -0.000043
      5.02629      6.49916      9.19940         0.027645      0.039653      0.010893
      7.69486      1.89965      9.05608         0.014122     -0.028871      0.044866
      6.36934      4.14971      9.22666         0.014612      0.004898     -0.058171
     10.35957      6.50281      8.91859        -0.016394      0.001831      0.006581
      6.34501      5.73857     10.23845         0.022708     -0.017738      0.004905
      9.11498      5.78289     10.09623         0.010356     -0.052088      0.064052
    total drift:                                0.007550     -0.014857     -0.017727

  FREE ENERGIE OF THE ION-ELECTRON SYSTEM (eV)
  free  energy   TOTEN  =      -627.43607689 eV

  energy  without entropy=     -627.43607689  energy(sigma->0) =     -627.43607689

 d Force = 0.3229209E-03[-0.192E-02, 0.257E-02]  d Energy =-0.2320684E-02 0.264E-02
 d Force =-0.9652810E+01[-0.965E+01,-0.965E+01]  d Ewald  =-0.9653046E+01 0.235E-03

 Finite differences progress:
  Degree of freedom:   6/  6
  Displacement:        2/  2
  Total:              12/ 12

 SECOND DERIVATIVES (NOT SYMMETRIZED)
              81X         81Y         81Z         82X         82Y         82Z
 81X    -1.807703   -0.020791    0.225484    0.138533    0.001957    0.016286
 81Y    -0.006180   -1.293956    0.528553    0.033876   -0.068343    0.067853
 81Z     0.245700    0.594675   -5.331864   -0.015479    0.063330   -0.042236
 82X     0.155766   -0.004889   -0.021331   -2.082088    0.496846   -1.033086
 82Y     0.000312   -0.065441    0.065726    0.509893   -1.072529    0.784623
 82Z    -0.009385    0.009508    0.029006   -1.098761    0.767167   -4.987764

 Eigenvectors and eigenvalues of the dynamical matrix

   1 f  =   36.763402 THz   230.991267 2PiTHz 1226.295051 cm-1   152.041263 meV
             X         Y         Z           dx          dy          dz
     13.042333  8.057962  6.787374            0           0           0
      5.114845  7.997760  7.009362            0           0           0
      3.886499  5.715219  6.911340            0           0           0
     13.024706  7.879042  1.000763            0           0           0
      4.976621  7.880468  1.168907            0           0           0
      3.738868  5.544192  0.956012            0           0           0
      7.628890  1.910811  2.979252            0           0           0
      9.009114  8.706763  2.893340            0           0           0
      2.458944  3.434362  6.927117            0           0           0
      2.407761  3.231138  1.075231            0           0           0
     10.326193  1.796539  3.091534            0           0           0
     13.059152  4.865781  4.920484            0           0           0
      3.727246  1.202916  6.929475            0           0           0
      8.905922  5.719038  6.897803            0           0           0
      5.106441  3.429257  7.005319            0           0           0
      3.706944  1.128718  0.971383            0           0           0
      8.883744  5.736281  0.991643            0           0           0
      5.000854  3.374065  1.054465            0           0           0
     11.642972  8.769642  2.889780            0           0           0
     11.658465  7.219322  4.797263            0           0           0
     13.039679  6.359002  2.970796            0           0           0
      8.943817  4.150168  2.941119            0           0           0
      7.638582  8.000509  6.982088            0           0           0
      7.508804  8.090212  1.022702            0           0           0
     10.334622  6.397915  2.825376            0           0           0
      2.459161  0.294875  4.988312            0           0           0
      7.708053  3.401300  6.953279            0           0           0
      7.665170  3.377379  0.973541            0           0           0
      6.361039  1.238476  6.877533            0           0           0
      6.351712  1.239972  0.967673            0           0           0
     11.688207  4.088812  3.039482            0           0           0
      3.840675  4.087497  2.982300            0           0           0
      1.121579  1.134996  6.993697            0           0           0
      1.160695  0.931305  1.265535            0           0           0
      6.368574  8.574404  3.134353            0           0           0
      7.619920  4.804550  4.912740            0           0           0
      5.041730  1.976744  2.965189            0           0           0
      2.476130  1.815478  3.064992            0           0           0
     14.339681  7.150417  4.930485            0           0           0
     11.649042  5.699061  6.755776            0           0           0
      6.405180  5.668256  7.084457            0           0           0
     11.778942  5.519919  1.007876            0           0           0
      6.225915  5.612288  0.923499            0           0           0
      7.572476  6.328243  2.854803            0           0           0
      6.251016  4.149414  2.937634            0           0           0
      3.787455  2.656914  4.909943            0           0           0
     10.333499  3.399936  6.915507            0           0           0
     10.314544  3.314036  1.156726            0           0           0
     10.327690  0.321756  5.032762            0           0           0
      8.951891  7.141992  4.792410            0           0           0
     10.285571  4.881678  4.872637            0           0           0
      6.363233  7.072743  5.017812            0           0           0
      5.037673  0.417039  4.817146            0           0           0
      5.038367  6.229272  2.999781            0           0           0
      7.695552  0.412344  4.900922            0           0           0
      9.047393  1.155673  6.948329            0           0           0
     10.247626  8.050011  6.741752            0           0           0
      8.973338  1.033718  1.115123            0           0           0
     10.337909  8.054459  1.016552            0           0           0
      5.089242  4.778561  4.970193            0           0           0
[...]
     11.672941  4.198098  8.984498            0           0           0
      9.027506  8.790673  9.010321            0           0           0
     10.337745  1.913642  9.085101            0           0           0
      2.422186  1.921355  9.092418            0           0           0
     11.656003  8.766980  8.889719            0           0           0
     12.984965  6.492907  8.883141            0           0           0
      5.062855  1.901016  9.082297            0           0           0
      7.701984  6.519375  9.293556            0           0           0
      9.035280  4.174544  9.082915            0           0           0
      5.026293  6.499161  9.199400            0           0           0
      7.694859  1.899651  9.056083            0           0           0
      6.369339  4.149710  9.226663            0           0           0
     10.359574  6.502810  8.918589            0           0           0
      6.345014  5.738568 10.238448    -0.032517   -0.053243    0.309595
      9.114976  5.782894 10.111234     0.302888   -0.192367    0.878358

[...]

   6 f  =   14.191029 THz    89.164862 2PiTHz  473.361746 cm-1    58.689398 meV
             X         Y         Z           dx          dy          dz
     13.042333  8.057962  6.787374            0           0           0
      5.114845  7.997760  7.009362            0           0           0
      3.886499  5.715219  6.911340            0           0           0
     13.024706  7.879042  1.000763            0           0           0
      4.976621  7.880468  1.168907            0           0           0
      3.738868  5.544192  0.956012            0           0           0
      7.628890  1.910811  2.979252            0           0           0
      9.009114  8.706763  2.893340            0           0           0
      2.458944  3.434362  6.927117            0           0           0
      2.407761  3.231138  1.075231            0           0           0
     10.326193  1.796539  3.091534            0           0           0
     13.059152  4.865781  4.920484            0           0           0
      3.727246  1.202916  6.929475            0           0           0
      8.905922  5.719038  6.897803            0           0           0
      5.106441  3.429257  7.005319            0           0           0
      3.706944  1.128718  0.971383            0           0           0
      8.883744  5.736281  0.991643            0           0           0
      5.000854  3.374065  1.054465            0           0           0
     11.642972  8.769642  2.889780            0           0           0
     11.658465  7.219322  4.797263            0           0           0
     13.039679  6.359002  2.970796            0           0           0
      8.943817  4.150168  2.941119            0           0           0
      7.638582  8.000509  6.982088            0           0           0
      7.508804  8.090212  1.022702            0           0           0
     10.334622  6.397915  2.825376            0           0           0
      2.459161  0.294875  4.988312            0           0           0
      7.708053  3.401300  6.953279            0           0           0
      7.665170  3.377379  0.973541            0           0           0
      6.361039  1.238476  6.877533            0           0           0
      6.351712  1.239972  0.967673            0           0           0
     11.688207  4.088812  3.039482            0           0           0
      3.840675  4.087497  2.982300            0           0           0
      1.121579  1.134996  6.993697            0           0           0
      1.160695  0.931305  1.265535            0           0           0
      6.368574  8.574404  3.134353            0           0           0
      7.619920  4.804550  4.912740            0           0           0
      5.041730  1.976744  2.965189            0           0           0
      2.476130  1.815478  3.064992            0           0           0
     14.339681  7.150417  4.930485            0           0           0
     11.649042  5.699061  6.755776            0           0           0
      6.405180  5.668256  7.084457            0           0           0
     11.778942  5.519919  1.007876            0           0           0
      6.225915  5.612288  0.923499            0           0           0
      7.572476  6.328243  2.854803            0           0           0
      6.251016  4.149414  2.937634            0           0           0
      3.787455  2.656914  4.909943            0           0           0
     10.333499  3.399936  6.915507            0           0           0
     10.314544  3.314036  1.156726            0           0           0
     10.327690  0.321756  5.032762            0           0           0
      8.951891  7.141992  4.792410            0           0           0
     10.285571  4.881678  4.872637            0           0           0
      6.363233  7.072743  5.017812            0           0           0
      5.037673  0.417039  4.817146            0           0           0
      5.038367  6.229272  2.999781            0           0           0
      7.695552  0.412344  4.900922            0           0           0
      9.047393  1.155673  6.948329            0           0           0
     10.247626  8.050011  6.741752            0           0           0
      8.973338  1.033718  1.115123            0           0           0
     10.337909  8.054459  1.016552            0           0           0
      5.089242  4.778561  4.970193            0           0           0
[...]
     11.672941  4.198098  8.984498            0           0           0
      9.027506  8.790673  9.010321            0           0           0
     10.337745  1.913642  9.085101            0           0           0
      2.422186  1.921355  9.092418            0           0           0
     11.656003  8.766980  8.889719            0           0           0
     12.984965  6.492907  8.883141            0           0           0
      5.062855  1.901016  9.082297            0           0           0
      7.701984  6.519375  9.293556            0           0           0
      9.035280  4.174544  9.082915            0           0           0
      5.026293  6.499161  9.199400            0           0           0
      7.694859  1.899651  9.056083            0           0           0
      6.369339  4.149710  9.226663            0           0           0
     10.359574  6.502810  8.918589            0           0           0
      6.345014  5.738568 10.238448    -0.047534    0.118215    0.000132
      9.114976  5.782894 10.111234    -0.297589   -0.941052   -0.098119

 Finite differences POTIM=  1.500000000000000E-002
  LATTYP: Found a hexagonal cell.
 ALAT       =    10.5600004196
 C/A-ratio  =     2.0833332505

  Lattice vectors:

 A1 = (   5.2800002098,  -9.1452286274,   0.0000000000)
 A2 = ( -10.5600004196,   0.0000000000,   0.0000000000)
 A3 = (   0.0000000000,   0.0000000000, -22.0000000000)

Analysis of symmetry for initial positions (statically):
 Subroutine PRICEL returns:
 Original cell was already a primitive cell.

[...]

The static configuration has the point symmetry C_1 .

Analysis of symmetry for dynamics (positions and initial velocities):
 Subroutine PRICEL returns:
 Original cell was already a primitive cell.

[...]

The dynamic configuration has the point symmetry C_1 .

Analysis of constrained symmetry for selective dynamics:
 Subroutine PRICEL returns:
 Original cell was already a primitive cell.

[...]

The constrained configuration has the point symmetry C_1 .

Analysis of structural, dynamic, and magnetic symmetry:
 Subroutine PRICEL returns:
 Original cell was already a primitive cell.

 Routine SETGRP: Setting up the symmetry group for a
 hexagonal supercell.

 Subroutine GETGRP returns: Found  1 space group operations
 (whereof  1 operations were pure point group operations)
 out of a pool of 24 trial point group operations.

The magnetic configuration has the point symmetry C_1 .

 Subroutine INISYM returns: Found  1 space group operations
 (whereof  1 operations are pure point group operations),
 and found     1 'primitive' translations

 KPOINTS: mesh auto

Automatic generation of k-mesh.
Space group operators:
 irot       det(A)        alpha          n_x          n_y          n_z        tau_x        tau_y        tau_z
    1     1.000000     0.000001     1.000000     0.000000     0.000000     0.000000     0.000000     0.000000

 Subroutine IBZKPT returns following result:

 Found      4 irreducible k-points:

 Following reciprocal coordinates:
            Coordinates               Weight
  0.000000  0.000000  0.000000      1.000000
  0.500000  0.000000  0.000000      1.000000
  0.000000  0.500000  0.000000      1.000000
  0.500000  0.500000  0.000000      1.000000

 Following cartesian coordinates:
            Coordinates               Weight
  0.000000  0.000000  0.000000      1.000000
  0.047348 -0.027337  0.000000      1.000000
  0.000000  0.054673  0.000000      1.000000
  0.047348  0.027337  0.000000      1.000000

 TETIRR: Found     12 inequivalent tetrahedra from       24
 BZINTS: Fermi energy:  0.892814;674.000000 electrons
         Band energy:***********;  BLOECHL correction: -0.063986