 vasp.5.4.4.18Apr17-6-g9f103f2a35 (build Nov 30 2020 22:55:02) complex

 executed on             LinuxIFC date 2023.07.28  22:34:36

 INCAR:
 POTCAR:    PAW_PBE Pt 04Feb2005
 POTCAR:    PAW_PBE H 15Jun2001
 POTCAR:    PAW_PBE Pt 04Feb2005
   VRHFIN =Pt: s1d9

   TITEL  = PAW_PBE Pt 04Feb2005
   POMASS =  195.080; ZVAL   =   10.000    mass and valenz
   ENMAX  =  230.283; ENMIN  =  172.712 eV

 POTCAR:    PAW_PBE H 15Jun2001
   VRHFIN =H: ultrasoft test

   TITEL  = PAW_PBE H 15Jun2001
   POMASS =    1.000; ZVAL   =    1.000    mass and valenz
   ENMAX  =  250.000; ENMIN  =  200.000 eV

 Optimization of the real space projectors (new method)

 maximal supplied QI-value         = 14.36
 optimisation between [QCUT,QGAM] = [ 11.92, 23.98] = [ 39.79,161.09] Ry
 Optimized for a Real-space Cutoff    1.49 Angstroem

   l    n(q)    QCUT    max X(q) W(low)/X(q) W(high)/X(q)  e(spline)
   2     10    11.920    66.195    0.79E-04    0.18E-03    0.24E-06
   2     10    11.920    64.643    0.81E-04    0.19E-03    0.24E-06
   0     11    11.920    95.520    0.28E-04    0.54E-04    0.18E-06
   0     11    11.920    63.403    0.27E-04    0.52E-04    0.17E-06
   1     10    11.920    19.961    0.18E-04    0.11E-03    0.23E-06
   1     10    11.920    13.289    0.25E-04    0.87E-04    0.19E-06
 Optimization of the real space projectors (new method)

 maximal supplied QI-value         = 34.20
 optimisation between [QCUT,QGAM] = [ 11.97, 23.94] = [ 40.13,160.53] Ry
 Optimized for a Real-space Cutoff    1.18 Angstroem

   l    n(q)    QCUT    max X(q) W(low)/X(q) W(high)/X(q)  e(spline)
   0      8    11.971    19.460    0.15E-03    0.31E-03    0.25E-06
   0      8    11.971    12.209    0.13E-03    0.29E-03    0.25E-06
   1      8    11.971     4.655    0.22E-03    0.24E-03    0.21E-06
  PAW_PBE Pt 04Feb2005                  :
  PAW_PBE H 15Jun2001                   :

 POSCAR: Pt111\(1\1\1)\(2)
  positions in cartesian coordinates
 exchange correlation table for  LEXCH =        8
   RHO(1)=    0.500       N(1)  =     2000
   RHO(2)=  100.500       N(2)  =     4000

 ion  position               nearest neighbor table
   1  1.000  0.000  0.056-   5 2.64   9 2.64  13 2.64  29 2.64  57 2.64  37 2.64  42 2.87  14 2.87
                            54 2.87
   2  0.333  0.167  0.178-  30 2.64  26 2.64  38 2.64  42 2.64  14 2.64   6 2.64  15 2.84   7 2.84
                            11 2.84   9 2.87  21 2.87  13 2.87
   3  0.167  0.333  0.297-  39 2.64  27 2.64  43 2.64   7 2.64  15 2.64  31 2.64  14 2.84   6 2.84
                            10 2.84  12 2.87   8 2.87  48 2.87
   4  0.000  1.000  0.419-   8 2.64  12 2.64  16 2.64  32 2.64  40 2.64  60 2.64  27 2.87   7 2.87
                            63 2.87
   5  1.000  0.250  0.056-   1 2.64  45 2.64  33 2.64   9 2.64  29 2.64  25 2.64  14 2.87  10 2.87
                            18 2.87
   6  0.333  0.417  0.178-  26 2.64  62 2.64  10 2.64  34 2.64  14 2.64   2 2.64  43 2.84   3 2.84
                            15 2.84  45 2.87  49 2.87   9 2.87
   7  0.167  0.083  0.297-  27 2.64  15 2.64   3 2.64  63 2.64  11 2.64  35 2.64  42 2.84   2 2.84
                            14 2.84  16 2.87   4 2.87  12 2.87
   8  0.000  0.250  0.419-   4 2.64  48 2.64  36 2.64  12 2.64  32 2.64  28 2.64  31 2.87   3 2.87
                            27 2.87
   9  0.250  0.250  0.056-  21 2.64  13 2.64   1 2.64  49 2.64  45 2.64   5 2.64   2 2.87  14 2.87
                             6 2.87
  10  0.083  0.417  0.178-  34 2.64   6 2.64  46 2.64  14 2.64  18 2.64  22 2.64  39 2.84  31 2.84
                             3 2.84  33 2.87  45 2.87   5 2.87
  11  0.417  0.083  0.297-  19 2.64  15 2.64   7 2.64  47 2.64  35 2.64  23 2.64  30 2.84  38 2.84
                             2 2.84  20 2.87  16 2.87  24 2.87
  12  0.250  0.250  0.419-  65 1.73  24 2.64  16 2.64   4 2.64  52 2.64  48 2.64   8 2.64   3 2.87
                            15 2.87   7 2.87
  13  0.250  0.000  0.056-  21 2.64   9 2.64  17 2.64   1 2.64  37 2.64  41 2.64  38 2.87   2 2.87
                            42 2.87
  14  0.083  0.167  0.178-  42 2.64  54 2.64   6 2.64   2 2.64  10 2.64  18 2.64  27 2.84   3 2.84
                             7 2.84   5 2.87   1 2.87   9 2.87
  15  0.417  0.333  0.297-  43 2.64   7 2.64   3 2.64  11 2.64  55 2.64  19 2.64  26 2.84   2 2.84
                             6 2.84  24 2.87  12 2.87  52 2.87
  16  0.250  1.000  0.419-  24 2.64  12 2.64  20 2.64   4 2.64  40 2.64  44 2.64   7 2.87  11 2.87
                            35 2.87
  17  0.500  0.000  0.056-  29 2.64  25 2.64  13 2.64  21 2.64  41 2.64  53 2.64  58 2.87  30 2.87
                            38 2.87
  18  0.833  0.167  0.178-  54 2.64  58 2.64  22 2.64  10 2.64  30 2.64  14 2.64  23 2.84  31 2.84
                            27 2.84  25 2.87  29 2.87   5 2.87
  19  0.667  0.333  0.297-  55 2.64  31 2.64  59 2.64  11 2.64  23 2.64  15 2.64  22 2.84  30 2.84
                            26 2.84  28 2.87  64 2.87  24 2.87
  20  0.500  1.000  0.419-  32 2.64  28 2.64  16 2.64  24 2.64  44 2.64  56 2.64  11 2.87  23 2.87
                            47 2.87
  21  0.500  0.250  0.056-  25 2.64  61 2.64   9 2.64  13 2.64  49 2.64  17 2.64  30 2.87   2 2.87
                            26 2.87
  22  0.833  0.417  0.178-  50 2.64  26 2.64  30 2.64  18 2.64  46 2.64  10 2.64  19 2.84  59 2.84
                            31 2.84  61 2.87  25 2.87  33 2.87
  23  0.667  0.083  0.297-  27 2.64  31 2.64  19 2.64  51 2.64  47 2.64  11 2.64  18 2.84  58 2.84
                            30 2.84  32 2.87  28 2.87  20 2.87
  24  0.500  0.250  0.419-  28 2.64  64 2.64  12 2.64  16 2.64  52 2.64  20 2.64  15 2.87  11 2.87
                            19 2.87
  25  0.750  0.250  0.056-  17 2.64  21 2.64  29 2.64  61 2.64  33 2.64   5 2.64  18 2.87  22 2.87
                            30 2.87
  26  0.583  0.417  0.178-   6 2.64   2 2.64  22 2.64  30 2.64  62 2.64  50 2.64  55 2.84  15 2.84
                            19 2.84  49 2.87  61 2.87  21 2.87
  27  0.917  0.083  0.297-  23 2.64   7 2.64   3 2.64  51 2.64  31 2.64  63 2.64  54 2.84  14 2.84
                            18 2.84   4 2.87   8 2.87  32 2.87
  28  0.750  0.250  0.419-  20 2.64  24 2.64  32 2.64  64 2.64  36 2.64   8 2.64  19 2.87  23 2.87
                            31 2.87
  29  0.750  0.000  0.056-  17 2.64  25 2.64   5 2.64  53 2.64   1 2.64  57 2.64  54 2.87  18 2.87
                            58 2.87
  30  0.583  0.167  0.178-   2 2.64  38 2.64  58 2.64  26 2.64  22 2.64  18 2.64  11 2.84  19 2.84
                            23 2.84  21 2.87  17 2.87  25 2.87
  31  0.917  0.333  0.297-  59 2.64  19 2.64  23 2.64  39 2.64   3 2.64  27 2.64  18 2.84  10 2.84
                            22 2.84   8 2.87  36 2.87  28 2.87
  32  0.750  1.000  0.419-  20 2.64  28 2.64   8 2.64  56 2.64   4 2.64  60 2.64  23 2.87  27 2.87
                            51 2.87
  33  1.000  0.500  0.056-  37 2.64  41 2.64   5 2.64  45 2.64  25 2.64  61 2.64  10 2.87  46 2.87
                            22 2.87
  34  0.333  0.667  0.178-  62 2.64  10 2.64  58 2.64  46 2.64   6 2.64  38 2.64  47 2.84  39 2.84
                            43 2.84  41 2.87  45 2.87  53 2.87
  35  0.167  0.833  0.297-  63 2.64  59 2.64   7 2.64  11 2.64  47 2.64  39 2.64  46 2.84  38 2.84
                            42 2.84  44 2.87  40 2.87  16 2.87
  36  0.000  0.500  0.419-  40 2.64  44 2.64   8 2.64  48 2.64  28 2.64  64 2.64  59 2.87  39 2.87
                            31 2.87
  37  1.000  0.750  0.056-  33 2.64  41 2.64  61 2.64  57 2.64  13 2.64   1 2.64  46 2.87  50 2.87
                            42 2.87
  38  0.333  0.917  0.178-  58 2.64  30 2.64   2 2.64  42 2.64  34 2.64  46 2.64  11 2.84  35 2.84
                            47 2.84  13 2.87  17 2.87  41 2.87
  39  0.167  0.583  0.297-   3 2.64  31 2.64  59 2.64  43 2.64  47 2.64  35 2.64  10 2.84  34 2.84
                            46 2.84  48 2.87  36 2.87  44 2.87
  40  0.000  0.750  0.419-  36 2.64  44 2.64  64 2.64  60 2.64  16 2.64   4 2.64  63 2.87  35 2.87
                            59 2.87
  41  0.250  0.750  0.056-  45 2.64  33 2.64  37 2.64  53 2.64  17 2.64  13 2.64  34 2.87  46 2.87
                            38 2.87
  42  0.083  0.917  0.178-  14 2.64   2 2.64  38 2.64  46 2.64  50 2.64  54 2.64   7 2.84  63 2.84
                            35 2.84   1 2.87  13 2.87  37 2.87
  43  0.417  0.583  0.297-  15 2.64   3 2.64  39 2.64  51 2.64  47 2.64  55 2.64  62 2.84   6 2.84
                            34 2.84  52 2.87  56 2.87  48 2.87
  44  0.250  0.750  0.419-  48 2.64  36 2.64  40 2.64  56 2.64  20 2.64  16 2.64  35 2.87  39 2.87
                            47 2.87
  45  0.250  0.500  0.056-  41 2.64  53 2.64   5 2.64   9 2.64  49 2.64  33 2.64   6 2.87  10 2.87
                            34 2.87
  46  0.083  0.667  0.178-  34 2.64  50 2.64  10 2.64  42 2.64  22 2.64  38 2.64  59 2.84  35 2.84
                            39 2.84  37 2.87  33 2.87  41 2.87
  47  0.417  0.833  0.297-  39 2.64  43 2.64  11 2.64  23 2.64  35 2.64  51 2.64  58 2.84  34 2.84
                            38 2.84  56 2.87  44 2.87  20 2.87
  48  0.250  0.500  0.419-  65 1.66  44 2.64  56 2.64   8 2.64  12 2.64  36 2.64  52 2.64  39 2.87
                             3 2.87  43 2.87
  49  0.500  0.500  0.056-  61 2.64  53 2.64  57 2.64  21 2.64   9 2.64  45 2.64  26 2.87   6 2.87
                            62 2.87
  50  0.833  0.667  0.178-  22 2.64  46 2.64  26 2.64  42 2.64  54 2.64  62 2.64  55 2.84  63 2.84
                            59 2.84  57 2.87  61 2.87  37 2.87
  51  0.667  0.833  0.297-  63 2.64  27 2.64  43 2.64  55 2.64  23 2.64  47 2.64  54 2.84  62 2.84
                            58 2.84  60 2.87  32 2.87  56 2.87
  52  0.500  0.500  0.419-  65 1.66  64 2.64  56 2.64  60 2.64  24 2.64  12 2.64  48 2.64  43 2.87
                            15 2.87  55 2.87
  53  0.500  0.750  0.056-  49 2.64  57 2.64  45 2.64  41 2.64  29 2.64  17 2.64  62 2.87  34 2.87
                            58 2.87
  54  0.833  0.917  0.178-  18 2.64  14 2.64  50 2.64  58 2.64  42 2.64  62 2.64  51 2.84  27 2.84
                            63 2.84  29 2.87   1 2.87  57 2.87
  55  0.667  0.583  0.297-  19 2.64  59 2.64  63 2.64  15 2.64  51 2.64  43 2.64  50 2.84  26 2.84
                            62 2.84  64 2.87  60 2.87  52 2.87
  56  0.500  0.750  0.419-  52 2.64  60 2.64  48 2.64  44 2.64  32 2.64  20 2.64  47 2.87  43 2.87
                            51 2.87
  57  0.750  0.750  0.056-  61 2.64  49 2.64  53 2.64  37 2.64   1 2.64  29 2.64  50 2.87  62 2.87
                            54 2.87
  58  0.583  0.917  0.178-  38 2.64  30 2.64  18 2.64  34 2.64  62 2.64  54 2.64  47 2.84  23 2.84
                            51 2.84  17 2.87  29 2.87  53 2.87
  59  0.917  0.583  0.297-  31 2.64  55 2.64  19 2.64  39 2.64  35 2.64  63 2.64  22 2.84  46 2.84
                            50 2.84  36 2.87  40 2.87  64 2.87
  60  0.750  0.750  0.419-  64 2.64  52 2.64  56 2.64  40 2.64   4 2.64  32 2.64  51 2.87  55 2.87
                            63 2.87
  61  0.750  0.500  0.056-  49 2.64  57 2.64  21 2.64  25 2.64  37 2.64  33 2.64  22 2.87  26 2.87
[...]
         0         1         2         3         4         5         6         7         8         9
 total charge-density along one line

------------------------ aborting loop because EDIFF is reached ----------------------------------------

         DFTD3 V3.0 Rev 1
 Edisp (eV)  -38.72113

 E6    (eV) :   -14.2889
 E8    (eV) :   -24.4322
 % E8        : 63.10

  FORCE on cell =-STRESS in cart. coord.  units (eV):
  Direction    XX          YY          ZZ          XY          YZ          ZX
  Alpha Z  2019.82281  2019.82281  2019.82281
  Ewald  162439.56018162439.03594************     0.01467    -0.57160    -0.01495
  Hartree173336.59655173336.44452************     0.00235    -0.16725    -0.00164
  E(xc)   -2858.94225 -2858.95288 -2884.66353    -0.00002    -0.00803     0.00001
  Local  ************************357898.34037    -0.01286     0.53368     0.00995
  n-local   575.32995   575.23087   314.51578    -7.67398     0.01140     3.37510
  augment  3252.97242  3253.09313  3534.13770    -0.00073     0.07783     0.00075
  Kinetic  9157.10112  9157.32468  9753.23620    49.30101     0.14896     9.73345
  Fock        0.00000     0.00000     0.00000     0.00000     0.00000     0.00000
  vdW       -53.60203   -53.58022   -28.82421    -0.00024    -0.00374    -0.00009
  Total      81.28862    81.36971    -0.73527     0.00000     0.02125     0.00000
  in kB      67.42979    67.49706    -0.60992     0.00000     0.01762     0.00000

 VOLUME and BASIS-vectors are now :
  energy-cutoff  :      550.00
  volume of cell :     1931.47
      direct lattice vectors                 reciprocal lattice vectors
    10.560000420  0.000000000  0.000000000     0.094696966  0.054673319  0.000000000
    -5.280000210  9.145228627  0.000000000     0.000000000  0.109346638  0.000000000
     0.000000000  0.000000000 20.000000000     0.000000000  0.000000000  0.050000000

  length of vectors
    10.560000420 10.560000420 20.000000000     0.109346638  0.109346638  0.050000000

 FORCES acting on ions
    electron-ion (+dipol)            ewald-force                    non-local-force                 convergence-correction
   -.326E+00 -.306E+00 0.231E+04   0.316E+00 0.291E+00 -.231E+04   0.562E-02 0.216E-02 -.113E+00   0.774E-02 -.144E-01 -.811E-01
   0.340E+01 -.290E+01 0.779E+03   -.341E+01 0.283E+01 -.778E+03   0.108E-02 0.285E-01 -.293E+00   -.513E-01 0.577E-01 -.300E+00
   -.742E+01 -.394E+01 -.789E+03   0.747E+01 0.397E+01 0.789E+03   -.144E+00 -.816E-01 0.345E+00   0.104E+00 0.550E-01 -.251E+00
   0.508E+01 0.508E+01 -.230E+04   -.502E+01 -.509E+01 0.230E+04   -.835E-01 -.628E-01 0.765E-01   -.457E-02 0.951E-01 -.549E-02
   -.596E+00 -.333E+00 0.231E+04   0.619E+00 0.346E+00 -.231E+04   -.706E-03 -.129E-03 -.237E-01   0.358E-02 -.674E-03 -.763E-01
   0.419E-02 0.157E-01 0.776E+03   0.333E-03 -.264E-01 -.775E+03   0.542E-18 0.132E-02 -.414E+00   -.427E-05 0.946E-02 -.230E+00
   -.408E-02 -.436E+01 -.784E+03   -.392E-03 0.452E+01 0.784E+03   -.139E-16 -.266E+00 0.310E+00   -.312E-05 0.140E+00 -.297E+00
   0.410E+01 0.291E+01 -.226E+04   -.428E+01 -.298E+01 0.226E+04   0.127E+00 0.515E-01 0.136E-01   0.579E-01 0.159E-01 -.348E-01
   0.449E-02 -.377E+00 0.231E+04   -.811E-04 0.405E+00 -.231E+04   0.000E+00 -.822E-02 -.732E-01   -.105E-05 -.430E-02 -.472E-01
   -.422E+01 -.137E+01 0.779E+03   0.417E+01 0.140E+01 -.778E+03   0.234E-01 -.146E-01 -.293E+00   0.822E-01 0.212E-01 -.302E+00
   0.186E+01 0.213E+00 -.762E+03   -.184E+01 -.274E+00 0.762E+03   0.234E-01 -.677E-02 0.405E+00   -.670E-01 0.672E-01 -.272E+00
   -.512E-02 0.186E+02 -.232E+04   0.498E-03 -.195E+02 0.232E+04   0.000E+00 0.789E+00 -.378E+00   0.257E-05 0.724E-01 -.461E-01
   0.335E+00 -.306E+00 0.231E+04   -.316E+00 0.291E+00 -.231E+04   -.562E-02 0.216E-02 -.113E+00   -.774E-02 -.144E-01 -.811E-01
   -.339E+01 -.290E+01 0.779E+03   0.341E+01 0.283E+01 -.778E+03   -.108E-02 0.285E-01 -.293E+00   0.513E-01 0.577E-01 -.300E+00
   0.741E+01 -.394E+01 -.789E+03   -.747E+01 0.397E+01 0.789E+03   0.144E+00 -.816E-01 0.345E+00   -.104E+00 0.550E-01 -.251E+00
   -.509E+01 0.508E+01 -.230E+04   0.502E+01 -.509E+01 0.230E+04   0.835E-01 -.628E-01 0.765E-01   0.457E-02 0.951E-01 -.549E-02
   0.160E+00 0.901E-01 0.231E+04   -.134E+00 -.708E-01 -.231E+04   -.184E-02 -.839E-03 -.109E+00   -.420E-02 -.103E-01 -.101E+00
   0.370E+00 0.206E+00 0.783E+03   -.404E+00 -.222E+00 -.782E+03   -.267E-01 -.143E-01 -.360E+00   0.418E-01 0.161E-01 -.367E+00
   0.620E+00 -.140E+01 -.762E+03   -.544E+00 0.142E+01 0.762E+03   0.213E-01 -.143E-01 0.401E+00   -.103E+00 0.152E-01 -.280E+00
   0.392E+00 0.101E+00 -.232E+04   -.347E+00 -.656E-01 0.232E+04   -.634E-01 -.349E-01 0.103E+00   0.144E-01 0.307E-02 0.143E-01
   0.605E+00 -.333E+00 0.231E+04   -.619E+00 0.346E+00 -.231E+04   0.706E-03 -.129E-03 -.237E-01   -.358E-02 -.675E-03 -.763E-01
   0.427E-02 -.166E+01 0.784E+03   0.490E-03 0.163E+01 -.783E+03   0.260E-17 0.244E-01 -.493E+00   0.189E-05 0.312E-01 -.374E+00
   -.418E-02 -.598E-01 -.788E+03   -.466E-03 0.767E-01 0.788E+03   0.108E-18 -.130E-02 0.438E+00   0.379E-05 -.151E-01 -.246E+00
   -.411E+01 0.291E+01 -.226E+04   0.428E+01 -.298E+01 0.226E+04   -.127E+00 0.515E-01 0.136E-01   -.579E-01 0.159E-01 -.348E-01
   0.448E-02 -.168E+00 0.231E+04   0.161E-03 0.145E+00 -.231E+04   0.000E+00 0.220E-02 -.111E+00   0.170E-05 0.210E-02 -.104E+00
   0.423E+01 -.137E+01 0.779E+03   -.417E+01 0.140E+01 -.778E+03   -.234E-01 -.146E-01 -.293E+00   -.822E-01 0.212E-01 -.302E+00
   -.187E+01 0.213E+00 -.762E+03   0.184E+01 -.274E+00 0.762E+03   -.234E-01 -.677E-02 0.405E+00   0.670E-01 0.672E-01 -.272E+00
   -.438E-02 0.391E-01 -.232E+04   0.673E-04 -.686E-01 0.232E+04   0.000E+00 0.575E-01 0.101E+00   -.802E-06 -.415E-01 0.169E-01
   -.151E+00 0.901E-01 0.231E+04   0.134E+00 -.707E-01 -.231E+04   0.184E-02 -.839E-03 -.109E+00   0.421E-02 -.103E-01 -.101E+00
   -.361E+00 0.206E+00 0.783E+03   0.405E+00 -.221E+00 -.782E+03   0.267E-01 -.143E-01 -.360E+00   -.418E-01 0.161E-01 -.367E+00
   -.628E+00 -.140E+01 -.762E+03   0.543E+00 0.142E+01 0.762E+03   -.213E-01 -.143E-01 0.401E+00   0.103E+00 0.152E-01 -.280E+00
   -.401E+00 0.101E+00 -.232E+04   0.347E+00 -.656E-01 0.232E+04   0.634E-01 -.349E-01 0.103E+00   -.144E-01 0.307E-02 0.143E-01
   -.423E+00 -.132E+00 0.231E+04   0.401E+00 0.121E+00 -.231E+04   0.470E-02 0.412E-02 -.113E+00   -.174E-02 0.183E-01 -.800E-01
   -.921E+00 0.433E+01 0.779E+03   0.860E+00 -.431E+01 -.778E+03   0.251E-01 -.107E-01 -.294E+00   0.313E-01 -.689E-01 -.300E+00
   -.707E+00 -.681E+00 -.768E+03   0.670E+00 0.661E+00 0.768E+03   0.406E-02 0.129E-02 0.392E+00   0.343E-01 0.257E-01 -.322E+00
   0.700E+01 0.184E+01 -.230E+04   -.699E+01 -.177E+01 0.230E+04   -.966E-01 -.472E-01 0.761E-01   0.817E-01 -.506E-01 -.459E-02
   0.446E-02 -.168E-01 0.231E+04   -.743E-04 0.129E-01 -.231E+04   0.163E-18 0.887E-03 -.149E+00   0.124E-05 0.232E-02 -.798E-01
   0.151E+01 0.801E+00 0.784E+03   -.149E+01 -.781E+00 -.783E+03   -.202E-01 -.100E-01 -.494E+00   -.178E-01 -.201E-01 -.370E+00
   -.382E+01 0.211E+01 -.783E+03   0.395E+01 -.220E+01 0.783E+03   -.227E+00 0.132E+00 0.314E+00   0.133E+00 -.626E-01 -.314E+00
   -.441E-02 -.280E+00 -.230E+04   -.596E-04 0.263E+00 0.230E+04   0.108E-17 0.339E-02 0.297E-01   0.301E-05 0.215E-01 -.213E-01
   -.970E-01 0.422E+00 0.231E+04   0.897E-01 -.402E+00 -.231E+04   -.924E-03 -.572E-02 -.113E+00   -.977E-02 -.103E-02 -.771E-01
   0.413E-02 -.238E+01 0.780E+03   0.450E-03 0.235E+01 -.779E+03   -.173E-17 0.128E-01 -.349E+00   0.576E-06 0.214E-01 -.370E+00
   -.421E-02 0.832E+01 -.789E+03   -.372E-03 -.840E+01 0.789E+03   0.000E+00 0.168E+00 0.341E+00   -.543E-05 -.104E+00 -.257E+00
   0.190E+01 -.730E+01 -.230E+04   -.195E+01 0.724E+01 0.230E+04   -.119E-01 0.115E+00 0.769E-01   0.834E-01 -.266E-01 -.885E-02
   -.336E+00 0.193E+00 0.231E+04   0.364E+00 -.215E+00 -.231E+04   -.800E-02 0.508E-02 -.737E-01   -.153E-02 0.875E-02 -.436E-01
   -.196E+01 0.108E+01 0.780E+03   0.193E+01 -.107E+01 -.779E+03   0.103E-01 -.430E-02 -.351E+00   0.265E-01 -.795E-02 -.372E+00
   0.997E+00 0.135E+01 -.762E+03   -.105E+01 -.129E+01 0.762E+03   0.643E-02 0.219E-01 0.404E+00   0.356E-01 -.935E-01 -.278E+00
   0.156E+02 -.900E+01 -.232E+04   -.163E+02 0.945E+01 0.232E+04   0.715E+00 -.420E+00 -.333E+00   0.789E-01 -.423E-01 -.455E-01
   0.345E+00 0.193E+00 0.231E+04   -.364E+00 -.215E+00 -.231E+04   0.800E-02 0.508E-02 -.737E-01   0.152E-02 0.875E-02 -.436E-01
   0.197E+01 0.108E+01 0.780E+03   -.193E+01 -.107E+01 -.779E+03   -.103E-01 -.430E-02 -.351E+00   -.265E-01 -.795E-02 -.372E+00
   -.101E+01 0.135E+01 -.762E+03   0.105E+01 -.129E+01 0.762E+03   -.643E-02 0.219E-01 0.404E+00   -.356E-01 -.935E-01 -.278E+00
   -.156E+02 -.900E+01 -.232E+04   0.163E+02 0.945E+01 0.232E+04   -.715E+00 -.420E+00 -.333E+00   -.789E-01 -.423E-01 -.455E-01
   0.445E-02 0.680E+00 0.231E+04   -.318E-04 -.705E+00 -.231E+04   -.325E-18 0.154E-02 -.242E-01   -.532E-06 -.143E-02 -.695E-01
   -.150E+01 0.801E+00 0.784E+03   0.149E+01 -.781E+00 -.783E+03   0.202E-01 -.100E-01 -.494E+00   0.178E-01 -.201E-01 -.370E+00
   0.382E+01 0.211E+01 -.783E+03   -.395E+01 -.220E+01 0.783E+03   0.227E+00 0.132E+00 0.314E+00   -.133E+00 -.626E-01 -.314E+00
   -.446E-02 -.517E+01 -.226E+04   0.254E-04 0.534E+01 0.226E+04   0.000E+00 -.131E+00 0.132E-01   0.286E-05 -.475E-01 -.399E-01
   0.106E+00 0.422E+00 0.231E+04   -.897E-01 -.401E+00 -.231E+04   0.924E-03 -.572E-02 -.113E+00   0.977E-02 -.103E-02 -.771E-01
   0.414E-02 -.449E+00 0.783E+03   0.699E-03 0.502E+00 -.782E+03   0.000E+00 0.327E-01 -.361E+00   -.202E-06 -.580E-01 -.365E+00
   -.435E-02 0.827E+00 -.768E+03   -.427E-03 -.803E+00 0.768E+03   -.173E-17 -.390E-02 0.388E+00   0.515E-05 -.263E-01 -.331E+00
   -.191E+01 -.730E+01 -.230E+04   0.195E+01 0.724E+01 0.230E+04   0.119E-01 0.115E+00 0.769E-01   -.834E-01 -.266E-01 -.885E-02
   0.432E+00 -.132E+00 0.231E+04   -.401E+00 0.121E+00 -.231E+04   -.470E-02 0.412E-02 -.113E+00   0.175E-02 0.183E-01 -.800E-01
   0.929E+00 0.433E+01 0.779E+03   -.859E+00 -.431E+01 -.778E+03   -.251E-01 -.107E-01 -.294E+00   -.313E-01 -.689E-01 -.300E+00
   0.699E+00 -.681E+00 -.768E+03   -.671E+00 0.661E+00 0.768E+03   -.406E-02 0.129E-02 0.392E+00   -.343E-01 0.257E-01 -.322E+00
   -.701E+01 0.184E+01 -.230E+04   0.699E+01 -.177E+01 0.230E+04   0.966E-01 -.472E-01 0.761E-01   -.817E-01 -.506E-01 -.458E-02
   -.188E-03 -.223E+00 -.293E+03   0.607E-03 0.252E+00 0.295E+03   -.867E-18 -.233E-01 -.170E+01   0.613E-06 -.105E-02 0.350E-02
   0.457E-03 0.767E-01 0.146E+02   0.773E-13 -.188E-11 0.216E-11   -.564E-16 -.729E-01 -.314E+01   0.191E-04 0.154E-02 -.114E+02

 POSITION                                       TOTAL-FORCE (eV/Angst)
     10.55998      0.00001      1.11585        -0.001248     -0.026924     -0.003926
      2.63997      1.52422      3.55048        -0.062376      0.021318      0.020197
      0.00925      3.05481      5.97261         0.023690      0.010774     -0.002695
     -0.00016      0.00017      8.38472        -0.015965      0.019828     -0.010778
      9.23998      2.28632      1.11585         0.020634      0.011847      0.011702
      1.31997      3.81053      3.55048        -0.000000     -0.000060      0.272314
      1.32003      0.77654      5.97138         0.000000      0.031698     -0.000711
     -1.32916      2.28451      8.31634         0.019832     -0.007373      0.014438
      1.31998      2.28632      1.11585         0.000000      0.015610     -0.055077
     -1.32003      3.81053      3.55048         0.048988      0.042068      0.016516
      3.95995      0.76036      5.93541        -0.018264      0.003709      0.019631
      1.32002      2.26230      8.52144        -0.000000      0.003844      0.010168
      2.63998      0.00001      1.11585         0.001248     -0.026924     -0.003926
     -0.00003      1.52422      3.55048         0.062376      0.021318      0.020197
      2.63081      3.05481      5.97261        -0.023690      0.010774     -0.002695
      2.64021      0.00017      8.38472         0.015965      0.019828     -0.010778
      5.27998      0.00001      1.11585         0.015212      0.008218     -0.011072
      7.91997      1.52422      3.55048        -0.020034     -0.011072     -0.011677
      5.28261      3.05128      5.93566        -0.007062      0.013485      0.014538
      5.27908      0.00161      8.41050         0.001123      0.003876     -0.022555
      3.95998      2.28632      1.11585        -0.020634      0.011847      0.011702
      6.59997      3.81053      3.55048         0.000000      0.020868     -0.027842
      6.60003      0.76353      5.97273         0.000000      0.000291      0.001378
      3.96921      2.28451      8.31634        -0.019832     -0.007373      0.014438
      6.59998      2.28632      1.11585        -0.000000     -0.018119     -0.012026
      3.95997      3.81053      3.55048        -0.048988      0.042068      0.016516
      9.24010      0.76036      5.93541         0.018264      0.003709      0.019631
      6.60002      2.29091      8.41214         0.000000     -0.013699     -0.023379
      7.91998      0.00001      1.11585        -0.015212      0.008218     -0.011072
      5.27997      1.52422      3.55048         0.020034     -0.011072     -0.011677
      7.91744      3.05128      5.93566         0.007062      0.013485      0.014538
      7.92097      0.00161      8.41050        -0.001123      0.003876     -0.022555
      7.91998      4.57263      1.11585        -0.024036      0.011733     -0.004276
     -0.00003      6.09683      3.55048        -0.011550     -0.063328      0.018804
     -2.64107      7.62165      5.94883         0.007094      0.007163      0.000312
     -2.64156      4.57670      8.38309         0.003058     -0.027838     -0.003963
      6.59998      6.85894      1.11585        -0.000000     -0.000759     -0.046039
     -1.32003      8.38314      3.55048        -0.018827     -0.010226     -0.030161
     -1.30852      5.32930      5.97037         0.028195     -0.014099     -0.005304
     -3.95998      6.86131      8.36647        -0.000000      0.007941     -0.034400
     -1.32002      6.85894      1.11585        -0.022475      0.013865     -0.004202
     -3.96003      8.38314      3.55048        -0.000000      0.007370     -0.025574
      1.32003      5.32536      5.97293         0.000000     -0.023595     -0.005130
     -1.32170      6.86147      8.38336         0.023315      0.020277     -0.005335
     -0.00002      4.57263      1.11585         0.013824     -0.008314     -0.054105
     -2.64003      6.09683      3.55048         0.005741     -0.003118     -0.027258
     -0.00274      7.62398      5.93532        -0.005138     -0.016187      0.017190
     -0.02222      4.58798      8.51803         0.007446     -0.006974      0.014323
      2.63998      4.57263      1.11585        -0.013824     -0.008314     -0.054105
      5.27997      6.09683      3.55048        -0.005741     -0.003118     -0.027258
      2.64279      7.62398      5.93532         0.005138     -0.016187      0.017190
      2.66227      4.58798      8.51803        -0.007446     -0.006974      0.014323
      1.31998      6.85894      1.11585         0.000000     -0.024675      0.011952
      3.95997      8.38314      3.55048         0.018827     -0.010226     -0.030161
      3.94857      5.32930      5.97037        -0.028195     -0.014099     -0.005304
      1.32002      6.87109      8.31634        -0.000000     -0.011794      0.015438
      3.95998      6.85894      1.11585         0.022475      0.013865     -0.004202
      1.31997      8.38314      3.55048        -0.000000      0.023003     -0.012743
      6.60003      5.33734      5.94876        -0.000000     -0.008556     -0.003882
      3.96175      6.86147      8.38336        -0.023315      0.020277     -0.005335
      5.27998      4.57263      1.11585         0.024036      0.011733     -0.004276
      2.63997      6.09683      3.55048         0.011550     -0.063328      0.018804
      5.28113      7.62165      5.94883        -0.007094      0.007163      0.000312
      5.28161      4.57670      8.38309        -0.003058     -0.027838     -0.003963
      1.32000      3.80603      9.53819        -0.000000      0.005219      0.034869
    total drift:                                0.000476      0.005297      0.067197

  FREE ENERGIE OF THE ION-ELECTRON SYSTEM (eV)
  free  energy   TOTEN  =      -408.86893741 eV

  energy  without entropy=     -408.83367191  energy(sigma->0) =     -408.85718224

 d Force = 0.3760012E-03[ 0.263E-04, 0.726E-03]  d Energy = 0.3678148E-03 0.819E-05
 d Force = 0.9371971E+01[ 0.937E+01, 0.937E+01]  d Ewald  = 0.9371969E+01 0.252E-05

 reached required accuracy - stopping structural energy minimisation