 vasp.5.4.4.18Apr17-6-g9f103f2a35 (build Nov 30 2020 22:55:02) complex

 executed on             LinuxIFC date 2023.10.01  17:49:12

 INCAR:
 POTCAR:    PAW_PBE Pt 04Feb2005
 POTCAR:    PAW_PBE Pt 04Feb2005
   VRHFIN =Pt: s1d9

   TITEL  = PAW_PBE Pt 04Feb2005
   POMASS =  195.080; ZVAL   =   10.000    mass and valenz
   ENMAX  =  230.283; ENMIN  =  172.712 eV

 Optimization of the real space projectors (new method)

 maximal supplied QI-value         = 14.36
 optimisation between [QCUT,QGAM] = [ 11.92, 23.98] = [ 39.79,161.09] Ry
 Optimized for a Real-space Cutoff    1.49 Angstroem

   l    n(q)    QCUT    max X(q) W(low)/X(q) W(high)/X(q)  e(spline)
   2     10    11.920    66.195    0.79E-04    0.18E-03    0.24E-06
   2     10    11.920    64.643    0.81E-04    0.19E-03    0.24E-06
   0     11    11.920    95.520    0.28E-04    0.54E-04    0.18E-06
   0     11    11.920    63.403    0.27E-04    0.52E-04    0.17E-06
   1     10    11.920    19.961    0.18E-04    0.11E-03    0.23E-06
   1     10    11.920    13.289    0.25E-04    0.87E-04    0.19E-06
  PAW_PBE Pt 04Feb2005                  :

 POSCAR: top
  positions in cartesian coordinates
 exchange correlation table for  LEXCH =        8
   RHO(1)=    0.500       N(1)  =     2000
   RHO(2)=  100.500       N(2)  =     4000

 ion  position               nearest neighbor table
   1  0.333  0.166  0.184-  10 2.64  22 2.64  19 2.65  28 2.65  31 2.66   4 2.66   8 2.74   5 2.78
                            52 2.99  54 2.99  51 2.99  11 3.02
   2  0.167  0.333  0.315-  32 2.64  11 2.64  29 2.65   5 2.65  20 2.66  23 2.66   6 2.72   4 2.77
                            36 2.88   9 2.88  10 3.02   7 3.02
   3  0.000  0.999  0.417-  12 2.63  45 2.64  24 2.64  30 2.65   6 2.65   9 2.66   5 2.78  20 2.83
                            47 3.07
   4  0.333  0.417  0.199-  25 2.66  46 2.66   7 2.66  10 2.66  19 2.66   1 2.66  32 2.77   2 2.77
                            11 2.77  61 3.25  60 3.25  51 3.25
   5  0.167  0.083  0.301-   8 2.64  20 2.64   2 2.65  11 2.65  47 2.66  26 2.66  12 2.78   3 2.78
                             1 2.78  10 2.78   9 3.11  31 3.12
   6  0.001  0.250  0.428-  36 2.64   9 2.64  27 2.65   3 2.65  24 2.66  21 2.66   2 2.72  20 3.01
                            23 3.01
   7  0.083  0.417  0.184-  25 2.64  13 2.64  10 2.65  16 2.65  34 2.66   4 2.66  23 2.74  29 2.78
                            57 2.98  60 2.99  50 2.99   2 3.02
   8  0.416  0.084  0.298-   5 2.64  14 2.64  17 2.65  26 2.65  35 2.65  11 2.66   1 2.74  15 2.81
                            12 2.83  22 2.86  28 2.97  18 3.01
   9  0.250  0.249  0.437-  18 2.64   6 2.64  39 2.65  36 2.65  12 2.66   3 2.66  11 2.88   2 2.88
                             5 3.11
  10  0.083  0.166  0.184-   1 2.64  13 2.64   7 2.65  40 2.65  31 2.66   4 2.66  20 2.74   5 2.78
                            49 2.99  51 2.99  50 2.99   2 3.02
  11  0.417  0.333  0.315-  32 2.64   2 2.64  41 2.65   5 2.65  14 2.66   8 2.66  18 2.72   4 2.77
                            39 2.88   9 2.88   1 3.02  19 3.02
  12  0.249  0.999  0.417-   3 2.63  33 2.64  15 2.64  30 2.65  18 2.65   9 2.66   5 2.78   8 2.83
                            26 3.07
  13  0.833  0.167  0.178-  22 2.64  43 2.64   7 2.64  10 2.64  16 2.65  40 2.65  17 2.79  23 2.85
                            20 2.86  55 2.87  56 2.87  50 2.87
  14  0.666  0.333  0.298-  41 2.64   8 2.64  17 2.65  44 2.65  23 2.65  11 2.66  19 2.74  21 2.82
                            48 2.83  22 2.86  16 2.97  18 3.01
  15  0.500  1.000  0.416-  21 2.64  24 2.64  33 2.64  12 2.64  42 2.66  18 2.66  35 2.81   8 2.81
                            17 2.87
  16  0.834  0.417  0.171-  37 2.64  34 2.64  13 2.65  22 2.65  19 2.65   7 2.65  44 2.71  57 2.76
                            64 2.76  55 2.76  14 2.97  23 2.97
  17  0.667  0.083  0.295-  14 2.65  35 2.65  38 2.65  23 2.65   8 2.65  20 2.65  43 2.79  13 2.79
                            22 2.79  15 2.87  24 2.87  21 2.87
  18  0.500  0.250  0.428-  39 2.64   9 2.64  48 2.65  12 2.65  21 2.66  15 2.66  11 2.72   8 3.01
                            14 3.01
  19  0.584  0.417  0.184-  46 2.64  22 2.64   1 2.65  16 2.65  37 2.66   4 2.66  14 2.74  41 2.78
                            64 2.98  54 2.99  61 2.99  11 3.02
  20  0.917  0.084  0.298-   5 2.64  23 2.64  17 2.65  47 2.65  38 2.65   2 2.66  10 2.74  24 2.81
                             3 2.83  13 2.86  40 2.97   6 3.01
  21  0.750  0.250  0.416-  24 2.64  15 2.64  48 2.64  27 2.65  18 2.66   6 2.66  23 2.82  14 2.82
                            17 2.87
  22  0.583  0.167  0.177-  13 2.64  43 2.64  19 2.64   1 2.64  16 2.65  28 2.65  17 2.79  14 2.86
                             8 2.86  55 2.87  53 2.87  54 2.87
  23  0.917  0.333  0.298-  29 2.64  20 2.64  17 2.65  44 2.65  14 2.65   2 2.66   7 2.74  21 2.82
                            27 2.83  13 2.85  16 2.97   6 3.01
  24  0.750  1.000  0.416-  21 2.64  15 2.64   3 2.64  45 2.64   6 2.66  42 2.66  38 2.81  20 2.81
                            17 2.87
  25  0.333  0.667  0.184-   7 2.64  43 2.64  46 2.65  28 2.65  34 2.66   4 2.66  35 2.74  29 2.78
                            59 2.99  60 2.99  62 2.99  32 3.02
  26  0.168  0.834  0.284-  35 2.65   8 2.65  47 2.66  44 2.66   5 2.66  29 2.66  28 2.71  30 2.82
                            34 2.84  31 2.84  12 3.07  33 3.07
  27  0.000  0.501  0.417-  33 2.63  48 2.64  21 2.65  30 2.65   6 2.65  36 2.66  29 2.78  23 2.83
                            44 3.07
  28  0.333  0.916  0.171-  34 2.64  31 2.64  43 2.65  22 2.65  25 2.65   1 2.65  26 2.71  59 2.76
                            52 2.76  53 2.77   8 2.97  35 2.97
  29  0.167  0.583  0.301-  23 2.64  35 2.64   2 2.65  32 2.65  26 2.66  44 2.66  27 2.78  33 2.78
                            25 2.78   7 2.78  36 3.11  34 3.12
  30  1.000  0.750  0.402-  27 2.65  48 2.65  12 2.65   3 2.65  45 2.65  33 2.65  47 2.82  26 2.82
                            44 2.83
  31  0.084  0.917  0.164-  40 2.64  28 2.64  49 2.65  52 2.65  34 2.65  37 2.65  58 2.66  10 2.66
                             1 2.66  47 2.84  26 2.84   5 3.12
  32  0.417  0.583  0.315-  11 2.64   2 2.64  29 2.65  41 2.65  35 2.66  38 2.66  42 2.72   4 2.77
                            36 2.88  39 2.88  46 3.02  25 3.02
  33  0.249  0.749  0.417-  27 2.63  12 2.64  15 2.64  30 2.65  42 2.65  36 2.66  29 2.78  35 2.83
                            26 3.07
  34  0.084  0.666  0.164-  28 2.64  16 2.64  59 2.65  57 2.65  31 2.65  37 2.65  58 2.66  25 2.66
                             7 2.66  26 2.84  44 2.84  29 3.12
  35  0.416  0.833  0.298-  29 2.64  38 2.64  17 2.65  26 2.65   8 2.65  32 2.66  25 2.74  15 2.81
                            33 2.83  43 2.86  28 2.97  42 3.01
  36  0.250  0.500  0.437-   6 2.64  42 2.64  39 2.65   9 2.65  27 2.66  33 2.66   2 2.88  32 2.88
                            29 3.11
  37  0.833  0.666  0.164-  40 2.64  16 2.64  64 2.65  63 2.65  31 2.65  34 2.65  58 2.66  19 2.66
                            46 2.66  47 2.84  44 2.84  41 3.12
  38  0.666  0.833  0.298-  41 2.64  35 2.64  17 2.65  47 2.65  20 2.65  32 2.66  46 2.74  24 2.81
                            45 2.83  43 2.86  40 2.97  42 3.01
  39  0.501  0.500  0.437-  18 2.64  42 2.64   9 2.65  36 2.65  45 2.66  48 2.66  11 2.88  32 2.88
                            41 3.11
  40  0.834  0.916  0.171-  31 2.64  37 2.64  43 2.65  13 2.65  46 2.65  10 2.65  47 2.71  49 2.76
                            63 2.76  56 2.77  20 2.97  38 2.97
  41  0.666  0.583  0.301-  14 2.64  38 2.64  11 2.65  32 2.65  47 2.66  44 2.66  48 2.78  45 2.78
                            46 2.78  19 2.78  39 3.11  37 3.12
  42  0.500  0.749  0.428-  36 2.64  39 2.64  45 2.65  33 2.65  15 2.66  24 2.66  32 2.72  38 3.01
                            35 3.01
  43  0.583  0.917  0.178-  22 2.64  13 2.64  25 2.64  46 2.64  28 2.65  40 2.65  17 2.79  35 2.86
                            38 2.86  53 2.87  56 2.87  62 2.87
  44  0.916  0.582  0.284-  23 2.65  14 2.65  47 2.66  26 2.66  41 2.66  29 2.66  16 2.71  30 2.83
                            34 2.84  37 2.84  48 3.07  27 3.07
  45  0.750  0.749  0.417-  48 2.63   3 2.64  24 2.64  30 2.65  42 2.65  39 2.66  41 2.78  38 2.83
                            47 3.07
  46  0.584  0.667  0.184-  19 2.64  43 2.64  25 2.65  40 2.65  37 2.66   4 2.66  38 2.74  41 2.78
                            63 2.99  61 2.99  62 2.99  32 3.02
  47  0.916  0.834  0.284-  38 2.65  20 2.65  26 2.66  44 2.66   5 2.66  41 2.66  40 2.71  30 2.82
                            37 2.84  31 2.84   3 3.07  45 3.07
  48  0.750  0.501  0.417-  45 2.63  27 2.64  21 2.64  30 2.65  18 2.65  39 2.66  41 2.78  14 2.83
                            44 3.07
  49  0.000  0.000  0.056-  50 2.64  51 2.64  52 2.64  56 2.64  63 2.64  58 2.64  31 2.65  40 2.76
                            10 2.99
  50  1.000  0.250  0.056-  49 2.64  60 2.64  57 2.64  51 2.64  56 2.64  55 2.64  13 2.87   7 2.99
                            10 2.99
  51  0.250  0.250  0.056-  54 2.64  52 2.64  49 2.64  61 2.64  60 2.64  50 2.64   1 2.99  10 2.99
                             4 3.25
  52  0.250  0.000  0.056-  54 2.64  51 2.64  53 2.64  49 2.64  58 2.64  59 2.64  31 2.65  28 2.76
                             1 2.99
  53  0.500  0.000  0.056-  56 2.64  55 2.64  52 2.64  54 2.64  59 2.64  62 2.64  28 2.77  22 2.87
                            43 2.87
  54  0.500  0.250  0.056-  55 2.64  64 2.64  51 2.64  52 2.64  61 2.64  53 2.64  22 2.87  19 2.99
                             1 2.99
  55  0.750  0.250  0.056-  53 2.64  54 2.64  56 2.64  64 2.64  57 2.64  50 2.64  16 2.76  22 2.87
                            13 2.87
  56  0.750  0.000  0.056-  53 2.64  55 2.64  50 2.64  62 2.64  49 2.64  63 2.64  40 2.77  13 2.87
                            43 2.87
  57  1.000  0.500  0.056-  58 2.64  59 2.64  50 2.64  60 2.64  55 2.64  64 2.64  34 2.65  16 2.76
                             7 2.98
  58  1.000  0.750  0.056-  57 2.64  59 2.64  64 2.64  63 2.64  52 2.64  49 2.64  34 2.66  37 2.66
                            31 2.66
  59  0.250  0.750  0.056-  60 2.64  57 2.64  58 2.64  62 2.64  53 2.64  52 2.64  34 2.65  28 2.76
                            25 2.99
  60  0.250  0.500  0.056-  59 2.64  62 2.64  50 2.64  51 2.64  61 2.64  57 2.64   7 2.99  25 2.99
                             4 3.25
  61  0.500  0.500  0.056-  64 2.64  62 2.64  63 2.64  54 2.64  51 2.64  60 2.64  19 2.99  46 2.99
                             4 3.25
  62  0.500  0.750  0.056-  61 2.64  63 2.64  60 2.64  59 2.64  56 2.64  53 2.64  43 2.87  25 2.99
                            46 2.99
  63  0.750  0.750  0.056-  64 2.64  61 2.64  62 2.64  58 2.64  49 2.64  56 2.64  37 2.65  40 2.76
                            46 2.99
  64  0.750  0.500  0.056-  61 2.64  63 2.64  54 2.64  55 2.64  58 2.64  57 2.64  37 2.65  16 2.76
                            19 2.98

  LATTYP: Found a hexagonal cell.
 ALAT       =    10.5600004196
 C/A-ratio  =     1.8939393187

  Lattice vectors:

 A1 = (  10.5600004196,   0.0000000000,   0.0000000000)
 A2 = (  -5.2800002098,   9.1452286274,   0.0000000000)
 A3 = (   0.0000000000,   0.0000000000,  20.0000000000)

Analysis of symmetry for initial positions (statically):
[...]

         DFTD3 V3.0 Rev 1
 Edisp (eV)  -38.41165

 E6    (eV) :   -14.1677
 E8    (eV) :   -24.2440
 % E8        : 63.12

  FORCE on cell =-STRESS in cart. coord.  units (eV):
  Direction    XX          YY          ZZ          XY          YZ          ZX
  Alpha Z  2015.86452  2015.86452  2015.86452
  Ewald  160319.05576160320.27004************     0.17626     0.36200    -0.10669
  Hartree171302.92271171303.39949************     0.06691     0.09242    -0.02356
  E(xc)   -2854.23634 -2854.22795 -2879.92474     0.00131     0.00343    -0.00105
  Local  ************************353550.89133    -0.20605    -0.33760     0.09407
  n-local   566.12079   566.19364   307.76557     0.00739    -0.00404     0.00195
  augment  3255.22682  3255.11806  3529.99557    -0.01705    -0.03916     0.01191
  Kinetic  9151.51071  9151.27647  9732.42683    -0.03641    -0.09009     0.02763
  Fock        0.00000     0.00000     0.00000     0.00000     0.00000     0.00000
  vdW       -52.73049   -52.74214   -27.89936    -0.00177     0.00116    -0.00042
  Total      72.23017    72.19569    -3.55943    -0.00939    -0.01187     0.00384
  in kB      59.91571    59.88711    -2.95259    -0.00779    -0.00985     0.00319

 VOLUME and BASIS-vectors are now :
  energy-cutoff  :      550.00
  volume of cell :     1931.47
      direct lattice vectors                 reciprocal lattice vectors
    10.560000420  0.000000000  0.000000000     0.094696966  0.054673319  0.000000000
    -5.280000210  9.145228627  0.000000000     0.000000000  0.109346638  0.000000000
     0.000000000  0.000000000 20.000000000     0.000000000  0.000000000  0.050000000

  length of vectors
    10.560000420 10.560000420 20.000000000     0.109346638  0.109346638  0.050000000

 FORCES acting on ions
    electron-ion (+dipol)            ewald-force                    non-local-force                 convergence-correction
   0.110E+02 -.301E+02 0.755E+03   -.111E+02 0.303E+02 -.754E+03   0.178E+00 -.324E+00 -.675E+00   0.726E-02 0.488E-01 -.731E-02
   0.702E+01 0.404E+01 -.936E+03   -.716E+01 -.412E+01 0.936E+03   0.629E-01 0.347E-01 0.206E+00   0.132E-01 0.792E-02 -.105E+00
   0.915E+00 0.395E+02 -.225E+04   -.896E+00 -.391E+02 0.225E+04   -.249E-01 -.391E+00 0.495E-02   -.832E-03 0.526E-02 -.375E-01
   -.487E-02 -.470E-02 0.582E+03   0.491E-02 0.516E-02 -.581E+03   0.631E-03 -.907E-03 -.128E+01   -.137E-03 -.293E-03 -.169E-01
   0.235E-02 -.200E+01 -.773E+03   -.280E-02 0.211E+01 0.773E+03   -.392E-03 -.145E+00 0.121E+00   0.223E-03 0.352E-01 -.636E-01
   0.468E+02 0.269E+02 -.234E+04   -.461E+02 -.265E+02 0.234E+04   -.768E+00 -.442E+00 0.481E+00   0.345E-02 0.373E-02 -.412E-01
   -.315E+02 0.553E+01 0.755E+03   0.318E+02 -.553E+01 -.754E+03   -.371E+00 0.892E-02 -.676E+00   0.362E-01 -.291E-01 -.779E-02
   -.266E+00 -.183E+01 -.747E+03   0.262E+00 0.203E+01 0.746E+03   0.102E-01 -.218E+00 0.397E+00   0.126E-01 0.257E-01 -.679E-01
   0.311E-02 0.483E+02 -.240E+04   -.314E-02 -.480E+02 0.240E+04   -.415E-03 -.350E+00 0.459E+00   0.831E-05 0.103E-01 -.335E-01
   -.109E+02 -.301E+02 0.755E+03   0.111E+02 0.303E+02 -.754E+03   -.178E+00 -.324E+00 -.675E+00   -.717E-02 0.491E-01 -.762E-02
   -.704E+01 0.405E+01 -.936E+03   0.717E+01 -.413E+01 0.936E+03   -.615E-01 0.346E-01 0.206E+00   -.132E-01 0.707E-02 -.105E+00
   -.972E+00 0.395E+02 -.225E+04   0.953E+00 -.391E+02 0.225E+04   0.244E-01 -.390E+00 0.548E-02   0.124E-02 0.495E-02 -.377E-01
   -.958E+01 -.552E+01 0.798E+03   0.978E+01 0.563E+01 -.798E+03   -.210E+00 -.119E+00 -.369E+00   0.232E-02 0.419E-02 -.116E-01
   0.141E+01 0.113E+01 -.746E+03   -.159E+01 -.123E+01 0.746E+03   0.196E+00 0.987E-01 0.397E+00   -.137E-01 -.231E-01 -.678E-01
   -.897E+00 -.676E+00 -.225E+04   0.865E+00 0.655E+00 0.225E+04   0.416E-01 0.260E-01 -.268E-01   0.689E-02 0.466E-02 -.379E-01
   -.228E-01 0.704E+01 0.805E+03   0.222E-01 -.695E+01 -.805E+03   0.481E-03 -.614E-01 -.252E+00   0.847E-03 -.394E-01 -.718E-02
   0.204E-01 -.997E-01 -.717E+03   -.193E-01 0.958E-01 0.716E+03   -.101E-02 0.371E-02 0.403E+00   -.564E-03 0.254E-02 -.844E-01
   -.469E+02 0.270E+02 -.234E+04   0.461E+02 -.266E+02 0.234E+04   0.772E+00 -.445E+00 0.480E+00   -.321E-02 0.244E-02 -.418E-01
   0.315E+02 0.554E+01 0.755E+03   -.319E+02 -.553E+01 -.754E+03   0.370E+00 0.844E-02 -.675E+00   -.370E-01 -.299E-01 -.765E-02
   0.245E+00 -.181E+01 -.747E+03   -.241E+00 0.201E+01 0.747E+03   -.102E-01 -.218E+00 0.397E+00   -.126E-01 0.257E-01 -.679E-01
   0.389E-01 0.100E+01 -.225E+04   -.389E-01 -.968E+00 0.225E+04   -.180E-03 -.477E-01 -.287E-01   0.450E-03 -.684E-02 -.387E-01
   0.955E+01 -.550E+01 0.798E+03   -.975E+01 0.562E+01 -.798E+03   0.210E+00 -.119E+00 -.368E+00   -.241E-02 0.324E-02 -.112E-01
   -.139E+01 0.109E+01 -.746E+03   0.157E+01 -.119E+01 0.746E+03   -.197E+00 0.996E-01 0.397E+00   0.135E-01 -.217E-01 -.678E-01
   0.961E+00 -.643E+00 -.225E+04   -.927E+00 0.621E+00 0.225E+04   -.423E-01 0.262E-01 -.272E-01   -.729E-02 0.528E-02 -.379E-01
   -.205E+02 0.245E+02 0.755E+03   0.207E+02 -.248E+02 -.754E+03   -.194E+00 0.316E+00 -.677E+00   0.432E-01 -.182E-01 -.799E-02
   0.269E+00 0.251E+00 -.686E+03   -.138E+00 -.174E+00 0.686E+03   -.152E+00 -.910E-01 0.451E+00   0.196E-01 0.902E-02 -.529E-01
   0.348E+02 -.189E+02 -.225E+04   -.345E+02 0.187E+02 0.225E+04   -.354E+00 0.175E+00 0.371E-02   0.321E-02 -.328E-02 -.391E-01
   -.612E+01 -.347E+01 0.805E+03   0.603E+01 0.343E+01 -.805E+03   0.524E-01 0.287E-01 -.252E+00   0.347E-01 0.187E-01 -.743E-02
   -.168E+01 0.939E+00 -.773E+03   0.178E+01 -.996E+00 0.773E+03   -.128E+00 0.743E-01 0.118E+00   0.278E-01 -.167E-01 -.644E-01
   -.110E-01 0.123E+00 -.220E+04   0.105E-01 -.121E+00 0.220E+04   -.809E-04 -.289E-02 0.269E+00   0.624E-03 -.220E-02 -.132E+00
   0.113E-01 -.147E+02 0.816E+03   -.123E-01 0.150E+02 -.816E+03   0.224E-03 -.346E+00 -.109E+00   0.456E-03 0.411E-01 -.314E-01
   0.794E-02 -.816E+01 -.936E+03   -.726E-02 0.831E+01 0.936E+03   0.294E-04 -.697E-01 0.206E+00   -.535E-03 -.161E-01 -.105E+00
   0.339E+02 -.206E+02 -.225E+04   -.335E+02 0.204E+02 0.225E+04   -.330E+00 0.218E+00 0.323E-02   0.379E-02 -.230E-02 -.381E-01
   -.128E+02 0.737E+01 0.816E+03   0.130E+02 -.750E+01 -.816E+03   -.299E+00 0.172E+00 -.110E+00   0.366E-01 -.228E-01 -.309E-01
   -.164E+01 0.764E+00 -.747E+03   0.181E+01 -.869E+00 0.747E+03   -.186E+00 0.118E+00 0.397E+00   0.262E-01 -.252E-02 -.686E-01
   0.419E+02 -.241E+02 -.240E+04   -.416E+02 0.239E+02 0.240E+04   -.304E+00 0.175E+00 0.460E+00   0.736E-02 -.481E-02 -.341E-01
   0.128E+02 0.734E+01 0.816E+03   -.130E+02 -.748E+01 -.816E+03   0.300E+00 0.172E+00 -.110E+00   -.354E-01 -.226E-01 -.313E-01
   0.165E+01 0.754E+00 -.747E+03   -.182E+01 -.859E+00 0.747E+03   0.185E+00 0.118E+00 0.397E+00   -.271E-01 -.218E-02 -.683E-01
   -.419E+02 -.241E+02 -.240E+04   0.416E+02 0.240E+02 0.240E+04   0.303E+00 0.176E+00 0.460E+00   -.809E-02 -.451E-02 -.336E-01
   0.609E+01 -.348E+01 0.805E+03   -.601E+01 0.344E+01 -.805E+03   -.510E-01 0.283E-01 -.252E+00   -.345E-01 0.194E-01 -.792E-02
   0.170E+01 0.954E+00 -.773E+03   -.180E+01 -.101E+01 0.773E+03   0.127E+00 0.738E-01 0.119E+00   -.285E-01 -.174E-01 -.641E-01
   0.490E-03 -.539E+02 -.234E+04   0.290E-03 0.531E+02 0.234E+04   0.187E-03 0.886E+00 0.483E+00   -.259E-03 -.623E-02 -.405E-01
   0.304E-02 0.111E+02 0.798E+03   -.214E-02 -.113E+02 -.798E+03   -.757E-03 0.240E+00 -.370E+00   -.891E-03 -.368E-02 -.121E-01
   -.199E-01 -.322E+00 -.686E+03   0.193E-01 0.171E+00 0.686E+03   0.647E-03 0.176E+00 0.450E+00   0.994E-03 -.228E-01 -.530E-01
   -.338E+02 -.205E+02 -.225E+04   0.335E+02 0.203E+02 0.225E+04   0.328E+00 0.218E+00 0.365E-02   -.421E-02 -.234E-02 -.376E-01
   0.206E+02 0.245E+02 0.755E+03   -.207E+02 -.248E+02 -.754E+03   0.194E+00 0.316E+00 -.676E+00   -.445E-01 -.186E-01 -.820E-02
   -.290E+00 0.232E+00 -.686E+03   0.157E+00 -.155E+00 0.686E+03   0.153E+00 -.904E-01 0.451E+00   -.184E-01 0.961E-02 -.523E-01
   -.348E+02 -.189E+02 -.225E+04   0.344E+02 0.187E+02 0.225E+04   0.353E+00 0.176E+00 0.354E-02   -.263E-02 -.341E-02 -.388E-01
   -.758E+00 -.214E+02 0.230E+04   0.892E+00 0.214E+02 -.230E+04   -.826E-01 0.892E-01 -.246E+00   -.249E-02 0.131E-01 -.132E-03
   -.221E+02 -.127E+02 0.229E+04   0.224E+02 0.129E+02 -.229E+04   -.498E-01 -.290E-01 -.946E-01   0.751E-02 0.587E-02 0.188E-01
   0.127E-01 -.313E+02 0.226E+04   -.126E-01 0.314E+02 -.226E+04   0.991E-04 -.849E-02 0.119E+00   -.195E-03 0.150E-01 0.216E-01
   0.777E+00 -.214E+02 0.230E+04   -.912E+00 0.214E+02 -.230E+04   0.827E-01 0.893E-01 -.246E+00   0.265E-02 0.127E-01 0.405E-04
   0.687E+00 0.436E+00 0.231E+04   -.799E+00 -.500E+00 -.231E+04   0.165E-01 0.895E-02 -.319E+00   0.287E-02 0.154E-02 0.164E-01
   0.221E+02 -.127E+02 0.229E+04   -.224E+02 0.129E+02 -.229E+04   0.501E-01 -.292E-01 -.948E-01   -.757E-02 0.541E-02 0.188E-01
   -.147E-01 -.774E+00 0.231E+04   0.143E-01 0.903E+00 -.231E+04   0.113E-03 -.191E-01 -.319E+00   0.260E-03 -.202E-02 0.171E-01
   -.706E+00 0.430E+00 0.231E+04   0.819E+00 -.494E+00 -.231E+04   -.163E-01 0.901E-02 -.319E+00   -.303E-02 0.191E-02 0.161E-01
   -.189E+02 0.100E+02 0.230E+04   0.190E+02 -.992E+01 -.230E+04   0.364E-01 -.116E+00 -.248E+00   0.101E-01 -.863E-02 0.120E-02
   0.294E-02 -.214E-01 0.232E+04   -.358E-02 0.234E-01 -.232E+04   0.176E-03 -.358E-03 -.372E+00   0.422E-03 -.138E-02 -.178E-01
   -.182E+02 0.114E+02 0.230E+04   0.181E+02 -.115E+02 -.230E+04   0.119E+00 0.266E-01 -.247E+00   0.124E-01 -.565E-02 0.640E-03
   -.271E+02 0.156E+02 0.226E+04   0.273E+02 -.157E+02 -.226E+04   -.697E-02 0.395E-02 0.117E+00   0.115E-01 -.686E-02 0.219E-01
   0.271E+02 0.156E+02 0.226E+04   -.273E+02 -.157E+02 -.226E+04   0.715E-02 0.394E-02 0.118E+00   -.122E-01 -.700E-02 0.217E-01
   -.481E-02 0.255E+02 0.229E+04   0.519E-02 -.258E+02 -.229E+04   0.538E-04 0.572E-01 -.947E-01   -.408E-03 -.992E-02 0.185E-01
   0.182E+02 0.113E+02 0.230E+04   -.181E+02 -.115E+02 -.230E+04   -.119E+00 0.267E-01 -.246E+00   -.124E-01 -.536E-02 0.104E-03
   0.189E+02 0.100E+02 0.230E+04   -.190E+02 -.991E+01 -.230E+04   -.362E-01 -.116E+00 -.248E+00   -.942E-02 -.873E-02 0.852E-03
   0.132E-02 -.596E-02 0.400E+01   -.256E-12 0.263E-12 -.409E-11   -.400E-03 -.103E-02 -.212E+01   -.187E-03 0.804E-03 -.192E+01

 POSITION                                       TOTAL-FORCE (eV/Angst)
      2.62776      1.54870      3.61935         0.000461      0.007578     -0.000053
      0.00451      3.05023      6.29136        -0.014117     -0.010040     -0.002541
     -0.00164      0.00574      8.33411         0.001669      0.000738     -0.016443
      1.32005      3.81045      3.95308         0.000541     -0.000716      0.010064
      1.32019      0.78960      5.99947        -0.000631     -0.015361      0.000419
     -1.31367      2.28840      8.55750        -0.001702     -0.000509     -0.005469
     -1.29244      3.80878      3.61909         0.004497     -0.003970     -0.000189
      3.95714      0.77978      5.94214        -0.005353      0.005546     -0.020710
      1.32040      2.27287      8.75142        -0.000424      0.004271     -0.018577
      0.01234      1.54871      3.61948        -0.000610      0.007133      0.000092
      2.63596      3.05020      6.29122         0.015537     -0.010180     -0.002742
      2.64242      0.00572      8.33386        -0.002002      0.001983     -0.015996
      7.93079      1.53029      3.52417         0.002603      0.003651      0.016667
      5.26280      3.04134      5.94158        -0.005399      0.000229     -0.021095
      5.28317      0.00031      8.32425         0.006374      0.003884     -0.019418
      6.60004      3.80498      3.50687         0.000687      0.011429     -0.004367
      6.60030      0.76117      5.88507        -0.000545      0.002487      0.002212
      3.95430      2.28854      8.55743         0.004502     -0.003071     -0.006322
      3.93259      3.80880      3.61900        -0.005758     -0.003931      0.000498
      9.24326      0.77981      5.94241         0.005643      0.004738     -0.020969
      6.60038      2.28177      8.32358         0.000284     -0.007922     -0.020648
      5.26930      1.53029      3.52408        -0.002902      0.003019      0.017307
      7.93775      3.04139      5.94167         0.004574      0.001359     -0.020389
      7.91763      0.00028      8.32468        -0.006287      0.003852     -0.020150
      0.01528      6.07377      3.61932         0.005162     -0.001282      0.000153
     -2.62552      7.62879      5.82605        -0.015487     -0.013072     -0.008308
     -2.63440      4.56601      8.33371         0.001026      0.001325     -0.017841
     -1.31517      8.38588      3.50717        -0.010294     -0.007467     -0.004457
     -1.29529      5.31997      5.99937        -0.015548      0.010240     -0.000971
      6.60039      6.85774      8.16786         0.000056     -0.002979      0.024685
     -3.96000      8.40403      3.48362        -0.000337     -0.026033      0.025803
      1.32026      5.32893      6.29175         0.000220      0.018956     -0.002473
     -1.31239      6.85576      8.33426        -0.001661     -0.002663     -0.017958
     -2.62182      6.08638      3.48359        -0.021579      0.013005      0.026221
      0.01457      7.60844      5.94233         0.000082     -0.008251     -0.020975
     -0.01009      4.57736      8.75187         0.002156     -0.002105     -0.019762
      5.26188      6.08638      3.48358         0.021845      0.013761      0.026058
      2.62582      7.60843      5.94253        -0.000090     -0.008175     -0.020256
      2.65090      4.57728      8.75173        -0.004136     -0.000909     -0.019172
      3.95516      8.38592      3.50731         0.011583     -0.007524     -0.004417
      3.93579      5.31997      5.99929         0.014838      0.009679     -0.000996
      1.32038      6.85097      8.55814         0.000705      0.001293     -0.005459
      1.32005      8.37065      3.52435        -0.000737     -0.003978      0.016462
      6.60023      5.31781      5.82580         0.000964      0.019482     -0.008873
      3.95326      6.85575      8.33438         0.000422     -0.002747     -0.017690
      2.62485      6.07381      3.61936        -0.005515     -0.001777      0.000256
      5.26582      7.62878      5.82612         0.016722     -0.012187     -0.008551
      5.27522      4.56594      8.33337        -0.001042      0.002579     -0.017634
      0.00000      0.00000      1.11580         0.055912      0.142966     -0.108486
      9.24000      2.28631      1.11580         0.217875      0.125655      0.130897
      1.32000      2.28631      1.11580        -0.000059      0.186596      0.297983
      2.64000      0.00000      1.11580        -0.056251      0.143013     -0.108809
      5.28000      0.00000      1.11580        -0.100353     -0.057505     -0.037730
      3.96000      2.28631      1.11580        -0.218140      0.125802      0.130428
      6.60000      2.28631      1.11580        -0.000034      0.115724     -0.038609
      7.92000      0.00000      1.11580         0.100356     -0.057580     -0.037493
      7.92000      4.57261      1.11580         0.151778     -0.022408     -0.109307
      6.60000      6.85892      1.11580        -0.000067      0.000337     -0.273834
     -1.32000      6.85892      1.11580         0.095696     -0.119501     -0.108764
     -0.00000      4.57261      1.11580         0.161570     -0.093148      0.297635
      2.64000      4.57261      1.11580        -0.161716     -0.093117      0.297625
      1.32000      6.85892      1.11580         0.000017     -0.250646      0.131461
      3.96000      6.85892      1.11580        -0.095785     -0.119247     -0.108571
      5.28000      4.57261      1.11580        -0.151797     -0.022305     -0.109452
    total drift:                                0.000729     -0.006188     -0.038628

  FREE ENERGIE OF THE ION-ELECTRON SYSTEM (eV)
  free  energy   TOTEN  =      -405.05975049 eV

  energy  without entropy=     -405.02363133  energy(sigma->0) =     -405.04771077

 d Force = 0.2888368E-02[ 0.160E-02, 0.418E-02]  d Energy = 0.2991538E-02-0.103E-03
 d Force =-0.6465726E+02[-0.646E+02,-0.647E+02]  d Ewald  =-0.6465727E+02 0.830E-05

 Conjugate gradient step on ions:
 trial-energy change:   -0.002992  1 .order   -0.002888   -0.004176   -0.001600
  (g-gl).g = 0.294E-02      g.g   = 0.259E-02  gl.gl    = 0.764E-02
 g(Force)  = 0.259E-02   g(Stress)= 0.000E+00 ortho     = 0.514E-03
 gamma     =   0.38536
 trial     =   1.50018
 opt step  =   2.19017  (harmonic =   2.43225) maximal distance =0.02470546
 next E    =  -405.060129   (d E  =  -0.00337)

 reached required accuracy - stopping structural energy minimisation