 vasp.5.4.4.18Apr17-6-g9f103f2a35 (build Nov 30 2020 22:55:02) complex

 executed on             LinuxIFC date 2023.09.07  16:13:45

 INCAR:
 POTCAR:    PAW_PBE Pt 04Feb2005
 POTCAR:    PAW_PBE Pt 04Feb2005
   VRHFIN =Pt: s1d9

   TITEL  = PAW_PBE Pt 04Feb2005
   POMASS =  195.080; ZVAL   =   10.000    mass and valenz
   ENMAX  =  230.283; ENMIN  =  172.712 eV

 Optimization of the real space projectors (new method)

 maximal supplied QI-value         = 14.36
 optimisation between [QCUT,QGAM] = [ 11.92, 23.98] = [ 39.79,161.09] Ry
 Optimized for a Real-space Cutoff    1.49 Angstroem

   l    n(q)    QCUT    max X(q) W(low)/X(q) W(high)/X(q)  e(spline)
   2     10    11.920    66.195    0.79E-04    0.18E-03    0.24E-06
   2     10    11.920    64.643    0.81E-04    0.19E-03    0.24E-06
   0     11    11.920    95.520    0.28E-04    0.54E-04    0.18E-06
   0     11    11.920    63.403    0.27E-04    0.52E-04    0.17E-06
   1     10    11.920    19.961    0.18E-04    0.11E-03    0.23E-06
   1     10    11.920    13.289    0.25E-04    0.87E-04    0.19E-06
  PAW_PBE Pt 04Feb2005                  :

 POSCAR: Pt111
  positions in direct lattice
  velocities in cartesian coordinates
 exchange correlation table for  LEXCH =        8
   RHO(1)=    0.500       N(1)  =     2000
   RHO(2)=  100.500       N(2)  =     4000

 ion  position               nearest neighbor table
   1  0.783  0.870  0.326-  20 2.72  71 2.73  55 2.73  27 2.77  43 2.78  35 2.78  56 2.78  34 2.79
                            73 2.79   3 2.79  72 2.79   2 2.80
   2  0.033  0.871  0.327-  65 2.72  55 2.73  68 2.73  72 2.77  27 2.78  39 2.78  29 2.78   3 2.79
                            47 2.79  23 2.79   1 2.80  57 2.80
   3  0.034  0.620  0.327-  76 2.72  12 2.73  55 2.73  35 2.77  28 2.77  39 2.78   9 2.79  57 2.79
                             2 2.79   1 2.79  56 2.80  15 2.80
   4  0.788  0.867  0.024-  21 2.77  78 2.77  19 2.78  44 2.78   6 2.79  74 2.79  75 2.79  58 2.80
                             5 2.80
   5  0.039  0.866  0.024-  59 2.77  70 2.77  49 2.77  78 2.78  24 2.78   6 2.79  74 2.80   4 2.80
                            48 2.81
   6  0.037  0.617  0.024-  70 2.77  46 2.78  10 2.78  21 2.78   4 2.79   5 2.79  59 2.79  58 2.79
                            18 2.80
   7  0.620  0.202  0.126-  71 2.72  79 2.72  80 2.74  42 2.77  44 2.77  74 2.78  22 2.78  53 2.79
                            11 2.79  78 2.79  61 2.80  19 2.80
   8  0.370  0.952  0.126-  69 2.72  66 2.73  26 2.74  16 2.77  24 2.77  25 2.78  49 2.79  19 2.79
                            75 2.79  54 2.79  53 2.79  60 2.79
   9  0.035  0.370  0.327-  12 2.72  77 2.73  62 2.73  28 2.77  33 2.77  30 2.78   3 2.79  47 2.79
                            63 2.79  13 2.79  15 2.79  56 2.80
  10  0.038  0.368  0.024-  54 2.77  46 2.77   6 2.78  45 2.78  18 2.79  58 2.79  48 2.79  16 2.79
                            64 2.81
  11  0.870  0.202  0.127-  65 2.71  77 2.73  79 2.73  64 2.77  74 2.77  48 2.78  45 2.78  49 2.79
                             7 2.79  54 2.80  78 2.80  22 2.80
  12  0.951  0.536  0.227-   9 2.72  21 2.73   3 2.73  56 2.73  45 2.73  46 2.73  77 2.78  55 2.79
                            20 2.79  67 2.79  76 2.80  62 2.81
  13  0.285  0.119  0.327-  62 2.72  26 2.73  69 2.74  36 2.77  33 2.78  31 2.78  73 2.78  43 2.78
                            47 2.79   9 2.79  23 2.79  15 2.80
  14  0.534  0.619  0.327-  51 2.72  66 2.73  67 2.74  38 2.77  52 2.78  41 2.78  57 2.78  73 2.78
                            37 2.79  56 2.79  23 2.79  63 2.80
  15  0.285  0.370  0.327-  76 2.72  62 2.72  80 2.74  36 2.77  50 2.77  28 2.77  57 2.78  41 2.79
                            43 2.79   9 2.79  13 2.80   3 2.80
  16  0.288  0.118  0.024-   8 2.77  53 2.78  18 2.78  48 2.78  54 2.79  10 2.79  24 2.79  44 2.79
                            75 2.80
  17  0.537  0.617  0.023-  25 2.78  22 2.78  42 2.79  58 2.79  75 2.79  64 2.79  59 2.79  24 2.79
                            60 2.79
  18  0.288  0.367  0.024-  53 2.77  61 2.77  42 2.78  16 2.78  10 2.79  46 2.79  59 2.79  44 2.79
                             6 2.80
  19  0.620  0.951  0.126-  71 2.72  20 2.72  69 2.74  44 2.76  75 2.78   4 2.78  21 2.78  53 2.78
                             8 2.79  25 2.79  78 2.80   7 2.80
  20  0.700  0.786  0.226-   1 2.72  19 2.72  25 2.73  56 2.73  73 2.73  21 2.73  69 2.78  67 2.78
                            66 2.79  12 2.79  55 2.79  71 2.80
  21  0.869  0.701  0.127-  12 2.73  55 2.73  20 2.73   4 2.77  58 2.78   6 2.78  19 2.78  45 2.78
                            46 2.79  25 2.79  70 2.79  78 2.80
  22  0.619  0.452  0.126-  79 2.72  67 2.72  51 2.74  42 2.77  17 2.78  64 2.78   7 2.78  25 2.78
                            61 2.79  60 2.79  45 2.80  11 2.80
  23  0.283  0.870  0.327-  26 2.72  68 2.73  66 2.74  29 2.77  31 2.78  37 2.78  47 2.78  57 2.78
                            73 2.79   2 2.79  14 2.79  13 2.79
  24  0.288  0.868  0.023-   8 2.77  60 2.78  75 2.78   5 2.78  49 2.79  48 2.79  16 2.79  17 2.79
                            59 2.80
  25  0.618  0.702  0.126-  67 2.72  20 2.73  66 2.74  75 2.77  17 2.78   8 2.78  60 2.78  22 2.78
                            58 2.78  45 2.79  21 2.79  19 2.79
  26  0.203  0.036  0.227-  54 2.72  23 2.72  49 2.73  47 2.73  13 2.73   8 2.74  66 2.78  69 2.79
                            65 2.79  68 2.79  77 2.80  62 2.80
  27  0.865  0.953  0.429-   1 2.77  40 2.77   2 2.78  35 2.78  72 2.78  39 2.79  34 2.79  32 2.79
                            29 2.81
  28  0.117  0.453  0.429-   9 2.77   3 2.77  15 2.77  36 2.79  35 2.79  33 2.79  30 2.79  39 2.80
                            50 2.80
  29  0.117  0.954  0.429-  23 2.77  47 2.78  32 2.78   2 2.78  33 2.78  39 2.79  37 2.79  31 2.79
                            27 2.81
  30  0.867  0.453  0.429-  56 2.77  63 2.77   9 2.78  38 2.78  35 2.79  52 2.79  33 2.79  28 2.79
                            32 2.80
  31  0.368  0.953  0.430-  34 2.77  13 2.78  73 2.78  23 2.78  52 2.78  37 2.79  29 2.79  33 2.80
                            36 2.80
  32  0.867  0.202  0.429-  72 2.77  63 2.77  47 2.77  29 2.78  40 2.79  38 2.79  27 2.79  33 2.79
                            30 2.80
  33  0.117  0.203  0.429-   9 2.77  47 2.77  13 2.78  29 2.78  28 2.79  30 2.79  32 2.79  31 2.80
                            36 2.80
  34  0.616  0.952  0.430-  31 2.77  73 2.77  43 2.78  52 2.78   1 2.79  27 2.79  36 2.79  35 2.79
                            40 2.80
  35  0.867  0.703  0.429-   3 2.77  27 2.78  56 2.78   1 2.78  39 2.79  30 2.79  28 2.79  34 2.79
                            52 2.80
  36  0.367  0.204  0.430-  15 2.77  13 2.77  43 2.78  40 2.78  28 2.79  50 2.79  34 2.79  33 2.80
                            31 2.80
  37  0.366  0.703  0.430-  57 2.77  50 2.78  23 2.78  39 2.78  14 2.79  29 2.79  31 2.79  52 2.79
                            38 2.80
  38  0.618  0.453  0.430-  14 2.77  41 2.77  30 2.78  50 2.78  52 2.78  63 2.78  32 2.79  40 2.80
                            37 2.80
  39  0.116  0.705  0.430-   3 2.78  57 2.78   2 2.78  37 2.78  35 2.79  27 2.79  29 2.79  28 2.80
                            50 2.81
  40  0.618  0.202  0.429-  43 2.77  41 2.77  27 2.77  36 2.78  72 2.78  32 2.79  50 2.79  38 2.80
                            34 2.80
  41  0.535  0.369  0.327-  80 2.72  51 2.73  79 2.73  40 2.77  38 2.77  50 2.78  14 2.78  72 2.78
                            63 2.78  15 2.79  43 2.80  57 2.81
  42  0.536  0.368  0.024-   7 2.77  22 2.77  18 2.78  59 2.78  17 2.79  61 2.79  44 2.79  64 2.79
                            74 2.81
  43  0.535  0.119  0.327-  80 2.72  69 2.72  71 2.74  40 2.77   1 2.78  34 2.78  36 2.78  13 2.78
                            72 2.79  15 2.79  73 2.80  41 2.80
  44  0.539  0.117  0.024-  19 2.76   7 2.77   4 2.78  53 2.79  42 2.79  74 2.79  16 2.79  18 2.79
                            75 2.80
  45  0.869  0.452  0.127-  77 2.72  12 2.73  67 2.73  58 2.77  64 2.78  10 2.78  11 2.78  21 2.78
                            25 2.79  22 2.80  54 2.80  46 2.80
  46  0.120  0.452  0.127-  62 2.72  76 2.72  12 2.73  10 2.77   6 2.78  54 2.78  70 2.78  61 2.78
                            18 2.79  21 2.79  45 2.80  53 2.80
  47  0.035  0.120  0.326-  77 2.72  26 2.73  65 2.73  32 2.77  33 2.77  29 2.78  23 2.78  63 2.79
                             2 2.79   9 2.79  13 2.79  72 2.80
  48  0.038  0.118  0.024-  49 2.77  11 2.78  54 2.78  16 2.78  10 2.79  24 2.79  64 2.79  74 2.79
                             5 2.81
  49  0.120  0.952  0.127-  68 2.72  26 2.73  65 2.73  48 2.77   5 2.77  60 2.78   8 2.79  24 2.79
                            11 2.79  78 2.79  54 2.80  70 2.80
  50  0.369  0.453  0.430-  15 2.77  57 2.77  41 2.78  37 2.78  38 2.78  36 2.79  40 2.79  28 2.80
                            39 2.81
  51  0.451  0.536  0.227-  61 2.72  14 2.72  41 2.73  60 2.73  57 2.73  22 2.74  66 2.78  76 2.79
                            67 2.79  80 2.79  68 2.79  79 2.80
  52  0.616  0.703  0.430-  14 2.78  73 2.78  34 2.78  38 2.78  31 2.78  56 2.78  30 2.79  37 2.79
                            35 2.80
  53  0.371  0.201  0.127-  69 2.72  80 2.72  62 2.74  18 2.77  16 2.78  19 2.78   7 2.79  61 2.79
                            54 2.79  44 2.79   8 2.79  46 2.80
  54  0.121  0.202  0.127-  26 2.72  62 2.72  77 2.73  10 2.77  48 2.78  46 2.78  16 2.79  53 2.79
                             8 2.79  11 2.80  45 2.80  49 2.80
  55  0.951  0.786  0.227-  78 2.72  21 2.73   2 2.73   1 2.73   3 2.73  70 2.73  71 2.78  12 2.79
                            20 2.79  76 2.79  68 2.79  65 2.80
  56  0.784  0.620  0.327-  12 2.73  20 2.73  67 2.73  30 2.77  35 2.78  52 2.78  63 2.78   1 2.78
                            73 2.79  14 2.79   9 2.80   3 2.80
  57  0.284  0.620  0.327-  76 2.72  68 2.73  51 2.73  37 2.77  50 2.77  39 2.78  23 2.78  14 2.78
                            15 2.78   3 2.79   2 2.80  41 2.81
  58  0.787  0.616  0.024-  45 2.77  21 2.78  25 2.78  10 2.79  17 2.79  64 2.79  75 2.79   6 2.79
                             4 2.80
  59  0.287  0.618  0.024-  60 2.77   5 2.77  61 2.78  42 2.78  70 2.79   6 2.79  17 2.79  18 2.79
                            24 2.80
  60  0.369  0.702  0.126-  66 2.72  51 2.73  68 2.74  59 2.77  24 2.78  49 2.78  25 2.78  22 2.79
                            61 2.79  70 2.79   8 2.79  17 2.79
  61  0.369  0.452  0.127-  80 2.72  51 2.72  76 2.74  18 2.77  59 2.78  46 2.78  22 2.79  53 2.79
                            42 2.79  70 2.79  60 2.79   7 2.80
  62  0.203  0.286  0.227-  15 2.72  13 2.72  46 2.72  54 2.72   9 2.73  53 2.74  80 2.78  76 2.79
                            69 2.79  26 2.80  77 2.80  12 2.81
  63  0.785  0.370  0.326-  79 2.72  67 2.73  77 2.73  32 2.77  30 2.77  38 2.78  56 2.78  41 2.78
                            47 2.79   9 2.79  14 2.80  72 2.80
  64  0.787  0.367  0.024-  11 2.77  45 2.78  74 2.78  22 2.78  58 2.79  17 2.79  48 2.79  42 2.79
                            10 2.81
  65  0.952  0.036  0.226-  11 2.71   2 2.72  78 2.73  47 2.73  72 2.73  49 2.73  68 2.79  79 2.79
                            71 2.79  26 2.79  77 2.79  55 2.80
[...]
   0.234E-01 -.708E-01 -.133E+04   -.218E-01 0.807E-01 0.133E+04   0.200E-01 -.142E-01 0.652E+00   -.111E-01 -.414E-02 0.410E-02
   0.210E-01 -.404E+00 0.261E+04   -.169E-01 0.385E+00 -.261E+04   -.318E-01 0.587E-01 -.130E+01   0.134E-01 -.144E-01 -.611E-02
   -.602E+00 0.148E+01 0.261E+04   0.604E+00 -.146E+01 -.261E+04   0.673E-02 -.543E-01 -.131E+01   -.908E-02 0.131E-01 0.262E-03
   -.334E-01 0.236E+00 0.261E+04   0.578E-01 -.251E+00 -.261E+04   -.306E-01 0.216E-01 -.132E+01   -.386E-02 0.378E-02 0.204E-02
   0.155E+00 0.111E-01 0.133E+04   -.158E+00 -.172E-02 -.133E+04   -.111E-01 0.836E-02 -.655E+00   0.552E-02 -.126E-01 -.243E-02
   0.447E+00 -.198E+00 0.133E+04   -.441E+00 0.206E+00 -.133E+04   -.167E-01 0.326E-02 -.656E+00   -.274E-02 -.104E-01 0.712E-02
   0.126E+00 0.101E+00 -.133E+04   -.135E+00 -.101E+00 0.133E+04   -.770E-02 -.119E-01 0.658E+00   0.144E-01 0.674E-02 0.194E-01
   -.867E+00 -.237E+00 0.261E+04   0.862E+00 0.215E+00 -.261E+04   0.250E-01 0.351E-01 -.132E+01   -.141E-01 -.484E-03 0.232E-02
   -.272E+00 -.159E+00 0.133E+04   0.267E+00 0.157E+00 -.133E+04   -.215E-02 0.338E-02 -.640E+00   0.110E-01 0.276E-02 0.123E-01
   -.492E+00 0.375E-01 -.378E+00   0.481E+00 -.430E-01 0.371E+00   0.102E-01 -.307E-02 -.587E-02   0.113E-01 0.965E-02 0.731E-02
   -.767E-01 -.273E-01 -.133E+04   0.830E-01 0.202E-01 0.133E+04   0.108E-02 -.273E-02 0.661E+00   -.522E-02 0.939E-02 0.172E-01
   0.751E-01 0.193E+00 -.133E+04   -.655E-01 -.183E+00 0.133E+04   0.626E-02 -.174E-01 0.664E+00   -.136E-01 -.585E-02 0.119E-02
   0.814E-01 0.162E+00 -.133E+04   -.688E-01 -.167E+00 0.133E+04   -.789E-02 -.336E-02 0.647E+00   -.104E-01 0.659E-02 0.128E-01
   0.951E+00 -.807E+00 0.261E+04   -.919E+00 0.794E+00 -.261E+04   -.578E-01 0.322E-01 -.131E+01   0.899E-03 -.806E-02 -.100E-01
   0.691E-02 -.477E-01 0.261E+04   -.185E-01 0.432E-01 -.261E+04   0.186E-01 0.141E-01 -.132E+01   0.105E-02 -.487E-02 -.534E-02
   0.376E-01 0.231E+00 0.261E+04   -.325E-01 -.228E+00 -.261E+04   0.399E-02 -.212E-01 -.132E+01   -.651E-02 0.994E-02 -.107E-01
   -.475E+00 -.528E-01 0.133E+04   0.460E+00 0.586E-01 -.133E+04   0.115E-01 0.593E-02 -.650E+00   0.133E-01 -.881E-02 0.126E-01
   -.100E+01 -.391E+00 0.104E+01   0.976E+00 0.396E+00 -.103E+01   0.360E-01 0.404E-02 0.675E-02   0.201E-01 -.925E-03 -.117E-01
   -.777E-01 -.216E+00 0.133E+04   0.734E-01 0.208E+00 -.133E+04   -.426E-03 0.160E-01 -.644E+00   0.637E-02 0.505E-02 0.107E-01
   -.746E-01 0.123E+00 0.133E+04   0.617E-01 -.129E+00 -.133E+04   -.561E-02 -.795E-03 -.659E+00   0.167E-01 0.710E-02 0.605E-02
   0.233E+00 0.216E+00 -.133E+04   -.224E+00 -.218E+00 0.133E+04   -.502E-02 -.107E-01 0.652E+00   -.116E-01 0.623E-02 -.772E-03
   0.593E-01 -.326E+00 0.261E+04   -.556E-01 0.307E+00 -.261E+04   -.915E-02 0.293E-01 -.131E+01   0.369E-03 0.187E-02 -.830E-02
   -.259E+00 0.197E+00 0.133E+04   0.258E+00 -.187E+00 -.133E+04   0.109E-01 -.965E-03 -.644E+00   -.479E-02 -.841E-02 0.268E-02
   0.511E+00 0.439E+00 -.111E+00   -.501E+00 -.429E+00 0.103E+00   -.569E-02 -.237E-01 -.528E-02   -.131E-01 -.371E-02 0.830E-02
   0.787E+00 0.135E-01 -.261E+04   -.782E+00 -.159E-01 0.261E+04   -.292E-01 -.763E-02 0.132E+01   0.146E-01 0.325E-02 -.592E-05
   0.814E+00 0.543E+00 -.261E+04   -.796E+00 -.516E+00 0.261E+04   -.346E-01 -.424E-01 0.131E+01   0.369E-02 -.103E-02 -.305E-03
   -.637E+00 0.129E+00 -.261E+04   0.611E+00 -.139E+00 0.261E+04   0.670E-01 -.526E-02 0.131E+01   -.152E-01 0.939E-02 -.355E-02
   0.791E+00 -.994E+00 -.261E+04   -.789E+00 0.982E+00 0.261E+04   -.305E-01 0.485E-01 0.131E+01   0.167E-01 -.165E-01 -.389E-03
   -.114E+01 0.700E+00 -.261E+04   0.112E+01 -.708E+00 0.261E+04   0.713E-01 -.346E-01 0.131E+01   -.206E-01 0.269E-01 0.845E-02
   0.490E+00 0.624E+00 -.261E+04   -.497E+00 -.600E+00 0.261E+04   -.625E-02 -.322E-01 0.131E+01   0.101E-01 -.356E-02 0.567E-02
   0.360E+00 0.680E+00 -.261E+04   -.354E+00 -.669E+00 0.261E+04   -.703E-02 -.315E-01 0.131E+01   0.460E-02 0.722E-02 -.170E-02
   0.264E+00 0.441E+00 -.261E+04   -.257E+00 -.440E+00 0.261E+04   -.191E-01 -.139E-01 0.132E+01   0.619E-02 0.805E-02 0.446E-02
   -.550E+00 -.651E+00 -.261E+04   0.508E+00 0.660E+00 0.261E+04   0.687E-01 0.260E-02 0.131E+01   -.191E-02 -.103E-01 -.251E-03
   -.442E+00 0.728E-01 -.261E+04   0.447E+00 -.958E-01 0.261E+04   0.139E-01 0.316E-01 0.131E+01   -.148E-01 0.244E-02 0.506E-02
   0.444E+00 0.142E+00 -.261E+04   -.407E+00 -.134E+00 0.261E+04   -.483E-01 -.204E-01 0.131E+01   -.692E-02 0.211E-02 0.812E-02
   -.469E+00 -.508E+00 -.261E+04   0.452E+00 0.505E+00 0.261E+04   0.301E-01 0.300E-01 0.130E+01   -.399E-02 -.126E-01 0.376E-02
   -.698E-01 -.132E+01 -.261E+04   0.678E-01 0.130E+01 0.261E+04   0.145E-01 0.366E-01 0.131E+01   -.240E-02 -.605E-02 -.595E-03
   -.455E+00 0.596E+00 -.261E+04   0.442E+00 -.583E+00 0.261E+04   0.265E-01 -.200E-01 0.131E+01   -.185E-02 0.193E-02 0.588E-02
   -.212E+00 -.128E+00 -.133E+04   0.212E+00 0.115E+00 0.133E+04   0.174E-01 -.395E-02 0.674E+00   -.450E-02 0.173E-01 0.185E-01
   0.123E+01 -.132E+01 0.261E+04   -.121E+01 0.129E+01 -.261E+04   -.554E-01 0.761E-01 -.131E+01   0.158E-01 -.121E-01 -.113E-01
   0.245E+00 0.460E-01 -.133E+04   -.233E+00 -.430E-01 0.132E+04   -.919E-02 -.438E-02 0.658E+00   -.951E-02 -.377E-02 0.947E-02
   0.414E+00 -.579E+00 0.261E+04   -.409E+00 0.579E+00 -.261E+04   -.166E-01 0.112E-01 -.131E+01   0.663E-02 -.586E-02 -.967E-02
   0.209E-01 0.311E+00 0.133E+04   -.194E-01 -.308E+00 -.132E+04   -.139E-02 -.130E-01 -.660E+00   -.512E-02 -.132E-02 0.301E-02
   -.220E+00 0.211E-01 0.132E+04   0.234E+00 -.323E-01 -.132E+04   0.205E-02 0.596E-02 -.653E+00   -.123E-01 0.920E-02 0.665E-02
   0.195E-01 0.762E-01 -.133E+04   -.213E-01 -.665E-01 0.133E+04   0.581E-02 -.116E-01 0.660E+00   -.348E-03 -.588E-02 0.680E-02
   -.607E+00 -.353E+00 0.261E+04   0.624E+00 0.336E+00 -.261E+04   -.193E-01 0.238E-01 -.131E+01   -.351E-02 0.219E-02 0.344E-04
   -.258E+00 -.437E-01 0.133E+04   0.268E+00 0.436E-01 -.132E+04   -.350E-02 -.335E-02 -.650E+00   -.543E-02 0.278E-02 0.870E-02
   -.126E+01 0.388E+00 -.261E+04   0.125E+01 -.378E+00 0.261E+04   0.429E-01 -.269E-01 0.130E+01   -.156E-01 0.507E-02 0.732E-02
   -.406E+00 0.176E-01 -.366E+00   0.390E+00 -.250E-01 0.360E+00   0.159E-01 -.107E-02 -.122E-01   0.895E-02 0.111E-01 0.937E-02
   -.123E+00 -.256E+00 -.261E+04   0.113E+00 0.259E+00 0.261E+04   0.110E-01 0.712E-02 0.131E+01   0.593E-02 -.819E-02 0.891E-02
   0.149E-01 -.342E-01 0.132E+04   -.226E-01 0.409E-01 -.132E+04   -.583E-03 -.104E-01 -.658E+00   0.103E-01 -.458E-03 0.164E-01
   0.178E+00 0.122E-01 0.133E+04   -.154E+00 -.149E-01 -.132E+04   -.185E-01 0.845E-02 -.651E+00   -.174E-01 -.119E-02 -.305E-02
   0.619E+00 0.129E+00 0.209E+00   -.612E+00 -.128E+00 -.199E+00   -.123E-01 -.107E-01 -.136E-01   -.130E-01 0.343E-02 -.676E-02
   -.141E+00 -.179E+00 -.133E+04   0.121E+00 0.186E+00 0.133E+04   0.193E-01 0.128E-02 0.672E+00   0.109E-01 -.487E-02 0.246E-02
   -.367E+00 -.132E+00 -.133E+04   0.371E+00 0.133E+00 0.133E+04   0.140E-01 -.606E-02 0.666E+00   -.660E-02 0.285E-02 0.651E-02
   -.228E+00 0.616E+00 0.261E+04   0.220E+00 -.609E+00 -.261E+04   -.166E-03 -.776E-02 -.131E+01   0.654E-02 -.273E-02 -.951E-02
   0.395E+00 -.565E-01 0.261E+04   -.382E+00 0.421E-01 -.261E+04   -.141E-01 0.234E-01 -.132E+01   -.381E-02 0.883E-04 -.142E-01
   -.421E-01 -.263E-03 0.133E+04   0.269E-01 -.649E-02 -.133E+04   0.223E-01 0.207E-02 -.647E+00   0.597E-02 0.720E-02 0.146E-01
[...]
   0.175E+00 0.729E+00 0.552E+00   -.178E+00 -.715E+00 -.555E+00   -.349E-03 -.171E-01 -.693E-03   0.343E-03 -.137E-01 0.674E-03
   -.535E+00 -.526E+00 -.529E+00   0.528E+00 0.514E+00 0.525E+00   0.237E-01 0.219E-02 -.109E-01   0.283E-02 0.179E-01 0.687E-02
   -.400E+00 -.319E+00 0.651E-01   0.395E+00 0.313E+00 -.694E-01   0.817E-02 0.761E-02 -.709E-02   0.376E-02 0.743E-02 0.610E-02
   -.765E-02 0.300E+00 0.133E+04   0.244E-01 -.311E+00 -.132E+04   -.303E-02 -.692E-02 -.659E+00   -.164E-01 0.149E-01 0.341E-02
   0.255E+00 0.530E+00 0.128E+01   -.260E+00 -.509E+00 -.129E+01   -.110E-02 -.105E-01 0.112E-01   0.185E-02 -.223E-01 -.913E-02
   -.613E-01 0.542E-01 -.132E+04   0.493E-01 -.488E-01 0.132E+04   0.219E-02 -.122E-01 0.675E+00   0.111E-01 0.332E-03 0.719E-02
   -.216E+00 -.478E-01 -.133E+04   0.209E+00 0.413E-01 0.133E+04   0.170E-01 0.117E-02 0.666E+00   0.137E-02 0.684E-02 0.844E-03
   0.778E-01 -.278E+00 0.261E+04   -.838E-01 0.273E+00 -.261E+04   -.160E-01 0.202E-01 -.130E+01   0.110E-01 -.744E-02 -.844E-02
   0.107E+01 0.136E+00 0.261E+04   -.104E+01 -.134E+00 -.261E+04   -.582E-01 -.330E-02 -.131E+01   0.787E-02 -.237E-03 -.145E-01
   0.577E+00 0.661E+00 -.109E+01   -.562E+00 -.658E+00 0.108E+01   -.620E-02 -.227E-01 -.102E-01   -.196E-01 -.508E-03 0.184E-01
   0.442E+00 0.438E-01 -.139E+00   -.439E+00 -.414E-01 0.144E+00   -.160E-01 -.317E-02 -.194E-01   -.668E-02 -.207E-02 -.153E-02
   0.190E+00 0.219E+00 0.133E+04   -.193E+00 -.208E+00 -.133E+04   -.206E-02 -.101E-01 -.656E+00   0.188E-03 -.982E-02 0.888E-02
   -.624E+00 -.292E+00 0.128E+01   0.605E+00 0.291E+00 -.128E+01   0.116E-01 0.234E-02 0.119E-01   0.241E-01 0.198E-02 -.147E-01
   0.743E+00 0.492E-01 -.540E+00   -.733E+00 -.404E-01 0.545E+00   -.242E-01 -.494E-02 -.168E-01   -.116E-01 -.469E-02 0.107E-02
   0.103E-01 -.139E-01 -.224E+00   0.655E-12 0.471E-12 -.131E-11   -.161E-01 0.167E-02 -.635E-03   -.157E-02 0.348E-02 0.196E+00

 POSITION                                       TOTAL-FORCE (eV/Angst)
     13.60528      8.40227      7.21000        -0.003563     -0.006973     -0.011576
      5.23539      8.40207      7.21049         0.013004      0.004042     -0.004001
      3.83984      5.98684      7.21318         0.010175     -0.008339     -0.016046
     13.62812      8.38318      0.47920        -0.014442      0.024180     -0.002568
      5.25596      8.39025      0.48264        -0.000772     -0.019074     -0.011890
      3.86159      5.96923      0.48496        -0.009893      0.010341     -0.018855
      8.03915      1.94977      2.76124        -0.008601      0.005026      0.011832
      9.43429      9.19846      2.76167        -0.013329      0.001050      0.013235
      2.44971      3.57104      7.21276        -0.002384     -0.005097     -0.010331
      2.46446      3.55281      0.48563         0.005219      0.012375     -0.019163
     10.82974      1.95139      2.75986         0.003531      0.005020      0.029151
     13.61094      5.17801      4.98796         0.010150      0.001030     -0.005071
      3.84343      1.15342      7.21241         0.002293     -0.000314     -0.006178
      9.42060      5.98639      7.21150         0.002338     -0.013280     -0.004222
      5.23901      3.57020      7.21481        -0.005789     -0.002089     -0.020545
      3.86589      1.13666      0.48380        -0.024233      0.011457     -0.011765
      9.43734      5.96985      0.48173         0.007354      0.005003     -0.013053
      5.25527      3.55579      0.48514         0.002098     -0.007037     -0.017335
     12.22217      9.19843      2.75978         0.010003      0.003130      0.021350
     12.21302      7.59243      4.98516         0.031265      0.008087     -0.003198
     13.61659      6.78244      2.76146         0.002145      0.013660      0.025655
      9.43258      4.36731      2.76164        -0.001250     -0.000430      0.013413
      8.02616      8.40318      7.21236        -0.007661     -0.006912     -0.014587
      8.04638      8.38561      0.48166        -0.005911      0.012745     -0.009028
     10.82462      6.78316      2.75954         0.005412      0.000441      0.018334
      2.45375      0.34615      4.98755        -0.008929     -0.016271     -0.004538
     14.99711      9.21057      9.48903        -0.008001     -0.006719      0.017523
      3.84058      4.38108      9.49537        -0.011871     -0.015106      0.002002
      6.62155      9.21140      9.49105         0.025763     -0.005788      0.010691
     12.20976      4.37448      9.49155        -0.011018      0.019135      0.010053
      9.41154      9.21222      9.49357         0.027873     -0.015111      0.002887
     10.81262      1.96351      9.49100        -0.002514     -0.011416      0.007500
      2.44389      1.96398      9.49212         0.003946     -0.011830      0.010211
     12.20693      9.21086      9.49040        -0.004681     -0.004953      0.010737
     13.59703      6.79387      9.49223         0.024244      0.001081      0.004509
      5.23223      1.95953      9.49384         0.003828      0.010438      0.004082
      8.02434      6.79577      9.49432        -0.017720     -0.009711     -0.002404
      9.41623      4.37581      9.49227         0.008435      0.013167      0.001802
      5.23106      6.79300      9.49291         0.010219      0.012806      0.007505
      8.02141      1.96238      9.48961         0.012086     -0.005168      0.014185
      8.02724      3.57057      7.21087         0.012736      0.000526      0.002857
      8.04869      3.54957      0.48189        -0.019086      0.027998     -0.009188
      6.63319      1.15284      7.21069        -0.006648     -0.005243     -0.011891
      6.65291      1.13757      0.48098        -0.005174      0.005994     -0.007322
     12.22253      4.36773      2.76294        -0.004913     -0.011544      0.012572
      3.85283      4.36688      2.76468         0.003251      0.003980      0.022248
      1.05272      1.15423      7.21138         0.003499     -0.007914     -0.012026
      1.07392      1.13749      0.48183        -0.006552      0.009930     -0.009168
      6.64378      9.20014      2.76214         0.001598     -0.000361      0.021341
      6.62618      4.37937      9.49585         0.017694     -0.011775     -0.005628
      8.03051      5.17788      4.98790         0.008381      0.002660     -0.008551
     10.81119      6.79271      9.49215         0.007484      0.001588      0.004454
      5.24989      1.95160      2.76386         0.001999     -0.003460      0.014960
      2.46066      1.95048      2.76316        -0.012033      0.004610      0.017242
     15.00603      7.59388      4.98712        -0.017844     -0.006493     -0.009957
     12.20961      5.98530      7.21039         0.010834      0.002342      0.001600
      6.63102      5.98678      7.21336         0.011571     -0.002279     -0.000849
     12.22952      5.97081      0.48135        -0.002166     -0.002799     -0.007874
      6.64996      5.96918      0.48330        -0.004819      0.009272     -0.008393
      8.03515      6.78375      2.76245         0.013202      0.002920      0.020013
[...]
      9.42579      7.59345      4.98673        -0.014490     -0.000461     -0.004938
     10.82085      5.17822      4.98618        -0.002880     -0.016666     -0.002266
      6.63510      7.59365      4.98807         0.019254      0.007947     -0.008072
      5.24189      0.34390      4.98708         0.006612      0.009248     -0.004807
      5.24677      6.78433      2.76317        -0.002674     -0.002397      0.011178
      8.03209      0.34443      4.98475        -0.003603     -0.011090     -0.001111
      9.42247      1.15420      7.20876         0.001637     -0.006204     -0.000752
     10.81510      8.40179      7.21190         0.012540      0.001717     -0.001562
      9.44294      1.13685      0.47993        -0.011287      0.008133     -0.005385
     10.83917      8.38666      0.47885        -0.023299     -0.001070     -0.003357
      5.24258      5.17872      4.98929        -0.010662     -0.019769     -0.005650
     12.21928      2.76155      4.98791        -0.019072     -0.003070     -0.015531
     15.01290      9.19969      2.76122        -0.005806     -0.008805      0.014560
      9.42753      2.76059      4.98470         0.016965      0.003662      0.003007
      6.63950      2.76100      4.98830        -0.025214     -0.000761     -0.010857
    total drift:                               -0.007410     -0.008737     -0.028129

  FREE ENERGIE OF THE ION-ELECTRON SYSTEM (eV)
  free  energy   TOTEN  =      -514.02359328 eV

  energy  without entropy=     -514.17791824  energy(sigma->0) =     -514.07503493

 d Force = 0.3169994E-02[ 0.246E-04, 0.632E-02]  d Energy = 0.3130500E-02 0.395E-04
 d Force = 0.1713452E+03[ 0.171E+03, 0.171E+03]  d Ewald  = 0.1713452E+03 0.504E-05

 Conjugate gradient step on ions:
 trial-energy change:   -0.003130  1 .order   -0.003170   -0.006315   -0.000025
  (g-gl).g = 0.473E-02      g.g   = 0.454E-02  gl.gl    = 0.310E-01
 g(Force)  = 0.454E-02   g(Stress)= 0.000E+00 ortho     =-0.152E-03
 gamma     =   0.15266
 trial     =   1.39860
 opt step  =   1.40406  (harmonic =   1.40406) maximal distance =0.00416803
 next E    =  -514.023633   (d E  =  -0.00317)

 reached required accuracy - stopping structural energy minimisation