 vasp.5.4.4.18Apr17-6-g9f103f2a35 (build Nov 30 2020 22:55:02) complex

 executed on             LinuxIFC date 2023.08.04  13:01:04

 INCAR:
 POTCAR:    PAW_PBE Pt 04Feb2005
 POTCAR:    PAW_PBE Cu 22Jun2005
 POTCAR:    PAW_PBE Ni 02Aug2007
 POTCAR:    PAW_PBE Fe 06Sep2000
 POTCAR:    PAW_PBE Co 02Aug2007
 POTCAR:    PAW_PBE H 15Jun2001

 POTCAR:    PAW_PBE Pt 04Feb2005
   VRHFIN =Pt: s1d9

   TITEL  = PAW_PBE Pt 04Feb2005
   POMASS =  195.080; ZVAL   =   10.000    mass and valenz
   ENMAX  =  230.283; ENMIN  =  172.712 eV

 POTCAR:    PAW_PBE Cu 22Jun2005
   VRHFIN =Cu: d10 p1

   TITEL  = PAW_PBE Cu 22Jun2005
   POMASS =   63.546; ZVAL   =   11.000    mass and valenz
   ENMAX  =  295.446; ENMIN  =  221.585 eV

 POTCAR:    PAW_PBE Ni 02Aug2007
   VRHFIN =Ni:

   TITEL  = PAW_PBE Ni 02Aug2007
   POMASS =   58.690; ZVAL   =   10.000    mass and valenz
   ENMAX  =  269.532; ENMIN  =  202.149 eV

 POTCAR:    PAW_PBE Fe 06Sep2000
   VRHFIN =Fe:  d7 s1

   TITEL  = PAW_PBE Fe 06Sep2000
   POMASS =   55.847; ZVAL   =    8.000    mass and valenz
   ENMAX  =  267.882; ENMIN  =  200.911 eV

 POTCAR:    PAW_PBE Co 02Aug2007
   VRHFIN =Co: d8 s1

   TITEL  = PAW_PBE Co 02Aug2007
   POMASS =   58.933; ZVAL   =    9.000    mass and valenz
   ENMAX  =  267.968; ENMIN  =  200.976 eV

 POTCAR:    PAW_PBE H 15Jun2001
   VRHFIN =H: ultrasoft test

   TITEL  = PAW_PBE H 15Jun2001
   POMASS =    1.000; ZVAL   =    1.000    mass and valenz
   ENMAX  =  250.000; ENMIN  =  200.000 eV

 Optimization of the real space projectors (new method)

 maximal supplied QI-value         = 14.36
 optimisation between [QCUT,QGAM] = [ 11.92, 23.98] = [ 39.79,161.09] Ry
 Optimized for a Real-space Cutoff    1.49 Angstroem

   l    n(q)    QCUT    max X(q) W(low)/X(q) W(high)/X(q)  e(spline)
   2     10    11.920    66.195    0.79E-04    0.18E-03    0.24E-06
   2     10    11.920    64.643    0.81E-04    0.19E-03    0.24E-06
   0     11    11.920    95.520    0.28E-04    0.54E-04    0.18E-06
   0     11    11.920    63.403    0.27E-04    0.52E-04    0.17E-06
   1     10    11.920    19.961    0.18E-04    0.11E-03    0.23E-06
   1     10    11.920    13.289    0.25E-04    0.87E-04    0.19E-06
 Optimization of the real space projectors (new method)

[...]

   l    n(q)    QCUT    max X(q) W(low)/X(q) W(high)/X(q)  e(spline)
   2      9    11.864    65.824    0.22E-03    0.53E-03    0.26E-06
   2      9    11.864    61.429    0.22E-03    0.53E-03    0.26E-06
   0      9    11.864    56.174    0.21E-03    0.32E-04    0.15E-06
   0      9    11.864    31.263    0.19E-03    0.30E-04    0.14E-06
   1      9    11.864    19.828    0.63E-04    0.30E-03    0.16E-06
   1      9    11.864    15.139    0.49E-04    0.25E-03    0.13E-06
 Optimization of the real space projectors (new method)

 maximal supplied QI-value         = 34.20
 optimisation between [QCUT,QGAM] = [ 11.97, 23.94] = [ 40.13,160.53] Ry
 Optimized for a Real-space Cutoff    1.18 Angstroem

   l    n(q)    QCUT    max X(q) W(low)/X(q) W(high)/X(q)  e(spline)
   0      8    11.971    19.460    0.15E-03    0.31E-03    0.25E-06
   0      8    11.971    12.209    0.13E-03    0.29E-03    0.25E-06
   1      8    11.971     4.655    0.22E-03    0.24E-03    0.21E-06
  PAW_PBE Pt 04Feb2005                  :
  PAW_PBE Cu 22Jun2005                  :
  PAW_PBE Ni 02Aug2007                  :
  PAW_PBE Fe 06Sep2000                  :
  PAW_PBE Co 02Aug2007                  :
  PAW_PBE H 15Jun2001                   :

 POSCAR: 10.56
  positions in cartesian coordinates
 exchange correlation table for  LEXCH =        8
   RHO(1)=    0.500       N(1)  =     2000
   RHO(2)=  100.500       N(2)  =     4000

 ion  position               nearest neighbor table
   1  0.790  0.876  0.316-  49 2.56  59 2.57  19 2.63  33 2.65  61 2.67  60 2.67  29 2.68  28 2.69
                             2 2.71  11 2.81   4 2.83  12 2.89
   2  0.044  0.882  0.316-  79 2.56  77 2.57  60 2.61  30 2.64  22 2.65  28 2.67  52 2.68   1 2.71
                            33 2.73   6 2.76   4 2.83  16 2.87
   3  0.287  0.378  0.320-  64 2.57  39 2.60  33 2.61  68 2.63  31 2.65  19 2.68  43 2.70  30 2.71
                             5 2.76  18 2.78  25 2.82  13 2.83
   4  0.875  0.959  0.424-  12 2.62  17 2.64  16 2.64   9 2.65   6 2.66  11 2.66  60 2.70   2 2.83
                             1 2.83
   5  0.127  0.458  0.426-  13 2.62  10 2.63  25 2.63   7 2.65  16 2.65  12 2.65   3 2.76  39 2.77
                            33 2.77
   6  0.127  0.961  0.422-   8 2.62  10 2.63  14 2.63   9 2.65  16 2.65   4 2.66   2 2.76  52 2.83
                            22 2.88
   7  0.877  0.456  0.425-  81 1.86   9 2.61  10 2.62  15 2.65   5 2.65  12 2.69  27 2.71  39 2.74
                            29 2.78  75 2.81
   8  0.375  0.959  0.419-  27 2.60   6 2.62  11 2.63  14 2.63  43 2.63  10 2.63  13 2.64  52 2.68
                            61 2.68
   9  0.875  0.211  0.422-   7 2.61  15 2.63  17 2.64  60 2.64   4 2.65   6 2.65  10 2.65  75 2.70
                            22 2.82
  10  0.127  0.209  0.422-   7 2.62  13 2.62   6 2.63   5 2.63   8 2.63   9 2.65  39 2.73  43 2.73
                            22 2.81
  11  0.623  0.961  0.423-  13 2.62   8 2.63  17 2.63  27 2.65   4 2.66  12 2.67  19 2.80  61 2.81
                             1 2.81
  12  0.877  0.710  0.428-  81 1.80  16 2.62   4 2.62   5 2.65  11 2.67   7 2.69  27 2.71  33 2.79
                            29 2.88   1 2.89
  13  0.374  0.210  0.428-   5 2.62  10 2.62  11 2.62   8 2.64  17 2.65  25 2.66   3 2.83  43 2.85
                            19 2.90
  14  0.375  0.711  0.426-  27 2.59   8 2.63   6 2.63  16 2.64  25 2.64  15 2.65  44 2.76  30 2.77
                            52 2.85
  15  0.625  0.459  0.423-   9 2.63  25 2.63  17 2.64  27 2.64   7 2.65  14 2.65  44 2.74  18 2.75
                            75 2.80
  16  0.126  0.710  0.425-  12 2.62  25 2.63  14 2.64   4 2.64   5 2.65   6 2.65  33 2.77  30 2.80
                             2 2.87
  17  0.626  0.209  0.425-  11 2.63   4 2.64   9 2.64  15 2.64  25 2.65  13 2.65  60 2.73  18 2.79
                            19 2.90
  18  0.554  0.371  0.318-  67 2.53  75 2.55  60 2.56  68 2.60  26 2.68  44 2.68  19 2.72  15 2.75
                            30 2.76   3 2.78  17 2.79  25 2.91
  19  0.538  0.122  0.315-  59 2.53  68 2.54  80 2.55  43 2.60  61 2.61   1 2.63   3 2.68  18 2.72
                            60 2.74  11 2.80  13 2.90  17 2.90
  20  0.547  0.122  0.038-  57 2.54  37 2.59  48 2.60  62 2.60  47 2.60  34 2.65  45 2.68  63 2.71
                            56 2.75
  21  0.124  0.462  0.127-  36 2.55  47 2.57  40 2.58  58 2.61  42 2.61  64 2.63  31 2.66  69 2.66
                            50 2.67  74 2.69  70 2.69  57 2.69
  22  0.040  0.135  0.313-  65 2.47  75 2.53  55 2.54  77 2.58  39 2.59  43 2.59  60 2.65   2 2.65
                            52 2.74  10 2.81   9 2.82   6 2.88
  23  0.032  0.135  0.034-  70 2.57  62 2.59  40 2.59  41 2.60  76 2.63  45 2.70  24 2.70  35 2.71
                            53 2.86
  24  0.127  0.955  0.132-  79 2.52  55 2.55  53 2.61  35 2.62  77 2.62  58 2.62  73 2.64  70 2.65
                            38 2.67  66 2.68  23 2.70  41 2.74
  25  0.375  0.461  0.427-  16 2.63   5 2.63  15 2.63  14 2.64  17 2.65  13 2.66   3 2.82  30 2.84
                            18 2.91
  26  0.458  0.546  0.220-  73 2.50  74 2.51  51 2.53  79 2.60  64 2.61  30 2.65  68 2.66  18 2.68
                            32 2.69  44 2.70  78 2.71  67 2.74
  27  0.620  0.712  0.426-  81 1.90  14 2.59   8 2.60  15 2.64  11 2.65  12 2.71   7 2.71  44 2.73
                            61 2.80  29 2.80
  28  0.964  0.793  0.218-  66 2.54  50 2.56  58 2.58  77 2.63  42 2.64  64 2.65   2 2.67  79 2.68
                             1 2.69  59 2.70  33 2.74  49 2.75
  29  0.790  0.623  0.320-  44 2.59  42 2.60  39 2.61  32 2.62  75 2.63  61 2.65  33 2.66  49 2.67
                             1 2.68   7 2.78  27 2.80  12 2.88
  30  0.293  0.632  0.319-  79 2.56  64 2.61  44 2.61  52 2.62   2 2.64  26 2.65  33 2.70   3 2.71
                            18 2.76  14 2.77  16 2.80  25 2.84
  31  0.211  0.284  0.223-  57 2.55  70 2.55  65 2.59  43 2.60  55 2.61  80 2.64   3 2.65  21 2.66
                            39 2.67  68 2.67  42 2.71  64 2.72
  32  0.717  0.537  0.221-  69 2.51  54 2.56  51 2.57  65 2.60  42 2.61  29 2.62  75 2.63  67 2.64
                            49 2.68  26 2.69  44 2.74  78 2.78
  33  0.041  0.625  0.321-  42 2.58  39 2.59   3 2.61  64 2.64   1 2.65  29 2.66  30 2.70   2 2.73
                            28 2.74   5 2.77  16 2.77  12 2.79
  34  0.797  0.870  0.037-  50 2.48  66 2.50  36 2.54  48 2.61  35 2.62  63 2.64  71 2.65  20 2.65
                            62 2.72
  35  0.044  0.872  0.035-  58 2.56  36 2.57  66 2.61  24 2.62  34 2.62  72 2.70  23 2.71  62 2.72
                            53 2.74
  36  0.039  0.631  0.035-  58 2.54  34 2.54  21 2.55  35 2.57  50 2.59  40 2.68  71 2.72  72 2.76
                            47 2.78
  37  0.626  0.214  0.133-  68 2.52  59 2.52  67 2.52  41 2.56  51 2.57  56 2.58  66 2.59  20 2.59
                            74 2.60  62 2.60  57 2.64  48 2.76
  38  0.376  0.961  0.131-  80 2.47  53 2.51  55 2.53  78 2.53  63 2.53  45 2.55  54 2.58  48 2.61
                            57 2.62  24 2.67  70 2.69  73 2.69
  39  0.040  0.380  0.321-  33 2.59  22 2.59  42 2.60   3 2.60  29 2.61  75 2.63  31 2.67  65 2.67
                            43 2.71  10 2.73   7 2.74   5 2.77
  40  0.040  0.377  0.033-  69 2.55  21 2.58  23 2.59  76 2.61  70 2.61  45 2.66  71 2.67  36 2.68
                            47 2.81
  41  0.868  0.215  0.131-  67 2.47  65 2.53  76 2.53  77 2.53  37 2.56  51 2.56  62 2.57  69 2.59
                            23 2.60  70 2.61  66 2.63  24 2.74
  42  0.960  0.545  0.225-  33 2.58  39 2.60  29 2.60  50 2.61  32 2.61  21 2.61  28 2.64  64 2.65
                            69 2.68  65 2.69  49 2.70  31 2.71
  43  0.293  0.120  0.319-  52 2.54  55 2.57  22 2.59  61 2.60  31 2.60  19 2.60   8 2.63  80 2.65
                             3 2.70  39 2.71  10 2.73  13 2.85
  44  0.540  0.631  0.321-  61 2.56  52 2.56  29 2.59  30 2.61  78 2.63  18 2.68  26 2.70  27 2.73
                            75 2.73  32 2.74  15 2.74  14 2.76
  45  0.292  0.126  0.037-  38 2.55  57 2.57  70 2.59  40 2.66  53 2.66  20 2.68  23 2.70  47 2.70
                            63 2.74
  46  0.545  0.626  0.042-  73 2.43  51 2.44  54 2.47  71 2.53  53 2.54  76 2.54  63 2.55  72 2.56
                            56 2.56
  47  0.307  0.374  0.039-  74 2.45  57 2.52  56 2.54  21 2.57  20 2.60  72 2.62  45 2.70  36 2.78
                            40 2.81
  48  0.628  0.952  0.133-  49 2.43  80 2.48  59 2.50  63 2.52  50 2.54  54 2.54  20 2.60  34 2.61
                            66 2.61  38 2.61  57 2.66  37 2.76
  49  0.701  0.798  0.223-  48 2.43  54 2.51  80 2.51   1 2.56  78 2.56  61 2.56  50 2.57  59 2.60
                            29 2.67  32 2.68  42 2.70  28 2.75
  50  0.866  0.710  0.128-  71 2.42  34 2.48  48 2.54  28 2.56  49 2.57  54 2.58  36 2.59  42 2.61
                            69 2.64  21 2.67  66 2.71  58 2.84
[...]
     12.89980      6.49745      2.82364         0.033667     -0.010592      0.043242
      9.01343      4.18612      2.81919        -0.043455     -0.055077     -0.094016
      7.80009      8.01068      6.95507        -0.004209     -0.018966     -0.016127
      7.81053      7.92859      0.86888         0.099954      0.064209     -0.021802
     10.31657      6.54831      2.89472        -0.020021      0.047402     -0.086425
      2.46166      0.31661      4.92733        -0.005752      0.005930     -0.039606
      7.75154      3.52543      0.86333        -0.003806     -0.173462      0.481267
      5.10291      1.89984      2.87069        -0.040949      0.054474      0.032583
      5.17349      6.40557      2.77226         0.065398     -0.023926     -0.005199
      7.65418      0.39388      4.89233        -0.052115     -0.057892     -0.106143
      9.05683      1.15274      7.10457         0.016006      0.016665      0.004862
[...]
      9.09183      2.62352      4.93970         0.058264      0.020094     -0.017959
      6.39598      2.67997      4.92292        -0.005358      0.032105     -0.080369
     11.64052      4.17844      2.78900         0.043209     -0.036053      0.040834
      2.34972      1.92500      2.86197        -0.012949      0.018913      0.007028
     11.59075      5.72177      0.94802        -0.196995      0.147306      0.032082
      6.50379      5.69604      0.91052         0.035095     -0.121898      0.036064
      7.71278      6.45493      2.81038        -0.099347      0.063724      0.133776
      6.43155      4.20716      2.83788         0.071776     -0.065206     -0.171826
     10.36070      3.38444      6.99809        -0.017048      0.004620      0.002864
     10.36553      3.54396      0.90454        -0.158642      0.098246      0.025035
     10.23662      0.46679      4.91587        -0.043423      0.010889      0.018108
      9.06408      7.34028      4.95059         0.045538     -0.058812     -0.066478
      6.48344      7.27349      4.94428        -0.004144      0.028516     -0.061459
      5.04827      0.31035      4.87551         0.021979      0.028221     -0.008479
     11.70624      5.72408     10.36394         0.019863     -0.006695      0.076296
    total drift:                                0.018302     -0.034458      0.003680

  FREE ENERGIE OF THE ION-ELECTRON SYSTEM (eV)
  free  energy   TOTEN  =      -512.38051685 eV

  energy  without entropy=     -512.38051685  energy(sigma->0) =     -512.38051685

 d Force = 0.2662323E-03[-0.229E-02, 0.282E-02]  d Energy =-0.8340738E-04 0.350E-03
 d Force =-0.1047645E+02[-0.105E+02,-0.105E+02]  d Ewald  =-0.1047669E+02 0.247E-03

 Finite differences progress:
  Degree of freedom:   3/  3
  Displacement:        2/  2
  Total:               6/  6

 SECOND DERIVATIVES (NOT SYMMETRIZED)
              81X         81Y         81Z
 81X    -1.423881   -0.404749    1.047849
 81Y    -0.399172   -1.141515    0.206842
 81Z     1.047250    0.205549   -5.678006

 Eigenvectors and eigenvalues of the dynamical matrix

   1 f  =   38.101115 THz   239.396368 2PiTHz 1270.916369 cm-1   157.573604 meV
             X         Y         Z           dx          dy          dz
     12.968929  8.008430  6.956650            0           0           0
      5.122242  8.066289  6.956748            0           0           0
      5.033195  3.459309  7.038205            0           0           0
     14.310776  8.774740  9.327844            0           0           0
      3.761131  4.190237  9.375264            0           0           0
      6.407704  8.784065  9.290907            0           0           0
     11.673305  4.169908  9.353855            0           0           0
      9.028058  8.773676  9.209453            0           0           0
     10.350009  1.926097  9.274817            0           0           0
      2.441511  1.914544  9.292844            0           0           0
     11.652595  8.793118  9.315798            0           0           0
     13.017525  6.497152  9.424566            0           0           0
      5.059456  1.916531  9.407655            0           0           0
      7.714564  6.500759  9.374118            0           0           0
      9.028153  4.201007  9.316718            0           0           0
      5.075318  6.490992  9.360742            0           0           0
      7.711611  1.913492  9.349637            0           0           0
      7.809806  3.390685  6.987532            0           0           0
      6.325460  1.114529  6.926363            0           0           0
      6.427482  1.119509  0.843789            0           0           0
      3.744575  4.224976  2.802947            0           0           0
      1.137477  1.233980  6.894831            0           0           0
      1.053506  1.233006  0.757137            0           0           0
      6.379696  8.732318  2.895796            0           0           0
      6.394472  4.213298  9.394396            0           0           0
      7.715193  4.989863  4.841883            0           0           0
     10.305250  6.514950  9.364248            0           0           0
     14.366899  7.249662  4.787507            0           0           0
     11.626374  5.694232  7.032903            0           0           0
      6.431746  5.777576  7.022302            0           0           0
      3.728800  2.594869  4.899318            0           0           0
     10.407142  4.909645  4.852938            0           0           0
      3.728970  5.715323  7.061993            0           0           0
     13.010760  7.954144  0.822852            0           0           0
      5.070618  7.976644  0.759159            0           0           0
      3.747252  5.772328  0.772685            0           0           0
      7.739055  1.959228  2.918920            0           0           0
      9.045754  8.788967  2.872263            0           0           0
      2.430459  3.474873  7.054929            0           0           0
      2.407877  3.445951  0.736756            0           0           0
     10.298420  1.968233  2.881385            0           0           0
     13.013514  4.988054  4.944101            0           0           0
      3.723280  1.098579  7.026048            0           0           0
      9.040072  5.772114  7.066387            0           0           0
      3.746828  1.152850  0.819592            0           0           0
      9.065133  5.724714  0.925373            0           0           0
      5.212120  3.416365  0.860857            0           0           0
     11.656252  8.704956  2.917869            0           0           0
     11.621509  7.299740  4.901783            0           0           0
     12.899801  6.497445  2.823641            0           0           0
      9.013433  4.186125  2.819185            0           0           0
      7.800091  8.010676  6.955073            0           0           0
      7.810527  7.928589  0.868881            0           0           0
     10.316566  6.548306  2.894722            0           0           0
      2.461657  0.316610  4.927330            0           0           0
      7.751538  3.525426  0.863327            0           0           0
      5.102914  1.899843  2.870690            0           0           0
      5.173495  6.405568  2.772261            0           0           0
      7.654181  0.393883  4.892331            0           0           0
      9.056830  1.152741  7.104567            0           0           0
[...]
      9.091830  2.623519  4.939700            0           0           0
      6.395982  2.679971  4.922922            0           0           0
     11.640522  4.178437  2.789004            0           0           0
      2.349716  1.924995  2.861968            0           0           0
     11.590753  5.721772  0.948016            0           0           0
      6.503789  5.696041  0.910522            0           0           0
      7.712777  6.454929  2.810380            0           0           0
      6.431551  4.207157  2.837884            0           0           0
     10.360700  3.384438  6.998089            0           0           0
     10.365531  3.543965  0.904545            0           0           0
     10.236619  0.466792  4.915867            0           0           0
      9.064077  7.340275  4.950593            0           0           0
      6.483441  7.273487  4.944283            0           0           0
      5.048274  0.310346  4.875506            0           0           0
     11.706241  5.724075 10.378941    -0.230699   -0.061057    0.971108

[...]

   3 f  =   14.040148 THz    88.216853 2PiTHz  468.328917 cm-1    58.065406 meV
             X         Y         Z           dx          dy          dz
     12.968929  8.008430  6.956650            0           0           0
      5.122242  8.066289  6.956748            0           0           0
      5.033195  3.459309  7.038205            0           0           0
     14.310776  8.774740  9.327844            0           0           0
      3.761131  4.190237  9.375264            0           0           0
      6.407704  8.784065  9.290907            0           0           0
     11.673305  4.169908  9.353855            0           0           0
      9.028058  8.773676  9.209453            0           0           0
     10.350009  1.926097  9.274817            0           0           0
      2.441511  1.914544  9.292844            0           0           0
     11.652595  8.793118  9.315798            0           0           0
     13.017525  6.497152  9.424566            0           0           0
      5.059456  1.916531  9.407655            0           0           0
      7.714564  6.500759  9.374118            0           0           0
      9.028153  4.201007  9.316718            0           0           0
      5.075318  6.490992  9.360742            0           0           0
      7.711611  1.913492  9.349637            0           0           0
      7.809806  3.390685  6.987532            0           0           0
      6.325460  1.114529  6.926363            0           0           0
      6.427482  1.119509  0.843789            0           0           0
      3.744575  4.224976  2.802947            0           0           0
      1.137477  1.233980  6.894831            0           0           0
      1.053506  1.233006  0.757137            0           0           0
      6.379696  8.732318  2.895796            0           0           0
      6.394472  4.213298  9.394396            0           0           0
      7.715193  4.989863  4.841883            0           0           0
     10.305250  6.514950  9.364248            0           0           0
     14.366899  7.249662  4.787507            0           0           0
     11.626374  5.694232  7.032903            0           0           0
      6.431746  5.777576  7.022302            0           0           0
      3.728800  2.594869  4.899318            0           0           0
     10.407142  4.909645  4.852938            0           0           0
      3.728970  5.715323  7.061993            0           0           0
     13.010760  7.954144  0.822852            0           0           0
      5.070618  7.976644  0.759159            0           0           0
      3.747252  5.772328  0.772685            0           0           0
      7.739055  1.959228  2.918920            0           0           0
      9.045754  8.788967  2.872263            0           0           0
      2.430459  3.474873  7.054929            0           0           0
      2.407877  3.445951  0.736756            0           0           0
     10.298420  1.968233  2.881385            0           0           0
     13.013514  4.988054  4.944101            0           0           0
      3.723280  1.098579  7.026048            0           0           0
      9.040072  5.772114  7.066387            0           0           0
      3.746828  1.152850  0.819592            0           0           0
      9.065133  5.724714  0.925373            0           0           0
      5.212120  3.416365  0.860857            0           0           0
     11.656252  8.704956  2.917869            0           0           0
     11.621509  7.299740  4.901783            0           0           0
     12.899801  6.497445  2.823641            0           0           0
      9.013433  4.186125  2.819185            0           0           0
      7.800091  8.010676  6.955073            0           0           0
      7.810527  7.928589  0.868881            0           0           0
     10.316566  6.548306  2.894722            0           0           0
      2.461657  0.316610  4.927330            0           0           0
      7.751538  3.525426  0.863327            0           0           0
      5.102914  1.899843  2.870690            0           0           0
      5.173495  6.405568  2.772261            0           0           0
      7.654181  0.393883  4.892331            0           0           0
      9.056830  1.152741  7.104567            0           0           0
[...]
      9.091830  2.623519  4.939700            0           0           0
      6.395982  2.679971  4.922922            0           0           0
     11.640522  4.178437  2.789004            0           0           0
      2.349716  1.924995  2.861968            0           0           0
     11.590753  5.721772  0.948016            0           0           0
      6.503789  5.696041  0.910522            0           0           0
      7.712777  6.454929  2.810380            0           0           0
      6.431551  4.207157  2.837884            0           0           0
     10.360700  3.384438  6.998089            0           0           0
     10.365531  3.543965  0.904545            0           0           0
     10.236619  0.466792  4.915867            0           0           0
      9.064077  7.340275  4.950593            0           0           0
      6.483441  7.273487  4.944283            0           0           0
      5.048274  0.310346  4.875506            0           0           0
     11.706241  5.724075 10.378941     0.669614   -0.734075    0.112922

 Finite differences POTIM=  1.500000000000000E-002
  LATTYP: Found a hexagonal cell.
 ALAT       =    10.5600004196
 C/A-ratio  =     2.0833332505

  Lattice vectors:

 A1 = (   5.2800002098,  -9.1452286274,   0.0000000000)
 A2 = ( -10.5600004196,   0.0000000000,   0.0000000000)
 A3 = (   0.0000000000,   0.0000000000, -22.0000000000)

Analysis of symmetry for initial positions (statically):
 Subroutine PRICEL returns:
 Original cell was already a primitive cell.

[...]

The static configuration has the point symmetry C_1 .

Analysis of symmetry for dynamics (positions and initial velocities):
 Subroutine PRICEL returns:
 Original cell was already a primitive cell.

[...]

The dynamic configuration has the point symmetry C_1 .

Analysis of constrained symmetry for selective dynamics:
 Subroutine PRICEL returns:
 Original cell was already a primitive cell.

[...]

The constrained configuration has the point symmetry C_1 .

Analysis of structural, dynamic, and magnetic symmetry:
 Subroutine PRICEL returns:
 Original cell was already a primitive cell.

 Routine SETGRP: Setting up the symmetry group for a
 hexagonal supercell.

 Subroutine GETGRP returns: Found  1 space group operations
 (whereof  1 operations were pure point group operations)
 out of a pool of 24 trial point group operations.

The magnetic configuration has the point symmetry C_1 .

 Subroutine INISYM returns: Found  1 space group operations
 (whereof  1 operations are pure point group operations),
 and found     1 'primitive' translations

 KPOINTS: mesh auto

Automatic generation of k-mesh.
Space group operators:
 irot       det(A)        alpha          n_x          n_y          n_z        tau_x        tau_y        tau_z
    1     1.000000     0.000001     1.000000     0.000000     0.000000     0.000000     0.000000     0.000000

 Subroutine IBZKPT returns following result:

 Found      4 irreducible k-points:

 Following reciprocal coordinates:
            Coordinates               Weight
  0.000000  0.000000  0.000000      1.000000
  0.500000  0.000000  0.000000      1.000000
  0.000000  0.500000  0.000000      1.000000
  0.500000  0.500000  0.000000      1.000000

 Following cartesian coordinates:
            Coordinates               Weight
  0.000000  0.000000  0.000000      1.000000
  0.047348 -0.027337  0.000000      1.000000
  0.000000  0.054673  0.000000      1.000000
  0.047348  0.027337  0.000000      1.000000

 TETIRR: Found     12 inequivalent tetrahedra from       24
 BZINTS: Fermi energy:  2.033174;776.000000 electrons
         Band energy:-681.394748;  BLOECHL correction: -0.143076