 vasp.5.4.4.18Apr17-6-g9f103f2a35 (build Nov 30 2020 22:55:02) complex

 executed on             LinuxIFC date 2023.09.11  09:15:11

 INCAR:
 POTCAR:    PAW_PBE Cu 22Jun2005
 POTCAR:    PAW_PBE Pt 04Feb2005
 POTCAR:    PAW_PBE H 15Jun2001

 POTCAR:    PAW_PBE Cu 22Jun2005
   VRHFIN =Cu: d10 p1

   TITEL  = PAW_PBE Cu 22Jun2005
   POMASS =   63.546; ZVAL   =   11.000    mass and valenz
   ENMAX  =  295.446; ENMIN  =  221.585 eV

 POTCAR:    PAW_PBE Pt 04Feb2005
   VRHFIN =Pt: s1d9

   TITEL  = PAW_PBE Pt 04Feb2005
   POMASS =  195.080; ZVAL   =   10.000    mass and valenz
   ENMAX  =  230.283; ENMIN  =  172.712 eV

 POTCAR:    PAW_PBE H 15Jun2001
   VRHFIN =H: ultrasoft test

   TITEL  = PAW_PBE H 15Jun2001
   POMASS =    1.000; ZVAL   =    1.000    mass and valenz
   ENMAX  =  250.000; ENMIN  =  200.000 eV

 Optimization of the real space projectors (new method)

 maximal supplied QI-value         = 16.25
 optimisation between [QCUT,QGAM] = [ 11.86, 23.89] = [ 39.41,159.82] Ry
 Optimized for a Real-space Cutoff    1.49 Angstroem

   l    n(q)    QCUT    max X(q) W(low)/X(q) W(high)/X(q)  e(spline)
   2     10    11.864     4.610    0.10E-03    0.20E-03    0.29E-06
   2     10    11.864     8.522    0.17E-03    0.33E-03    0.50E-06
   0     11    11.864    51.609    0.52E-04    0.55E-04    0.33E-06
   0     11    11.864    27.747    0.46E-04    0.52E-04    0.31E-06
   1     10    11.864    20.408    0.54E-04    0.25E-04    0.21E-06
   1     10    11.864    13.425    0.48E-04    0.22E-04    0.18E-06
 Optimization of the real space projectors (new method)

[...]

   l    n(q)    QCUT    max X(q) W(low)/X(q) W(high)/X(q)  e(spline)
   2     10    11.920    66.195    0.79E-04    0.18E-03    0.24E-06
   2     10    11.920    64.643    0.81E-04    0.19E-03    0.24E-06
   0     11    11.920    95.520    0.28E-04    0.54E-04    0.18E-06
   0     11    11.920    63.403    0.27E-04    0.52E-04    0.17E-06
   1     10    11.920    19.961    0.18E-04    0.11E-03    0.23E-06
   1     10    11.920    13.289    0.25E-04    0.87E-04    0.19E-06
 Optimization of the real space projectors (new method)

 maximal supplied QI-value         = 34.20
 optimisation between [QCUT,QGAM] = [ 11.97, 23.94] = [ 40.13,160.53] Ry
 Optimized for a Real-space Cutoff    1.18 Angstroem

   l    n(q)    QCUT    max X(q) W(low)/X(q) W(high)/X(q)  e(spline)
   0      8    11.971    19.460    0.15E-03    0.31E-03    0.25E-06
   0      8    11.971    12.209    0.13E-03    0.29E-03    0.25E-06
   1      8    11.971     4.655    0.22E-03    0.24E-03    0.21E-06
  PAW_PBE Cu 22Jun2005                  :
  PAW_PBE Pt 04Feb2005                  :
  PAW_PBE H 15Jun2001                   :

 POSCAR: PtM\(2)
  positions in cartesian coordinates
 exchange correlation table for  LEXCH =        8
   RHO(1)=    0.500       N(1)  =     2000
   RHO(2)=  100.500       N(2)  =     4000

 ion  position               nearest neighbor table
   1  0.785  0.869  0.315-  55 2.49  20 2.49  39 2.49   3 2.64  29 2.64  57 2.64  40 2.64  56 2.64
                             2 2.64  73 2.66  65 2.66  72 2.66
   2  0.035  0.869  0.315-  49 2.49  39 2.49  52 2.49  41 2.64   3 2.64  23 2.64  33 2.64   1 2.64
                            56 2.64  77 2.66  67 2.66  65 2.66
   3  0.035  0.619  0.315-  39 2.49  12 2.49  60 2.49  41 2.64   2 2.64   1 2.64   9 2.64  15 2.64
                            40 2.64  66 2.66  77 2.66  73 2.66
   4  0.786  0.868  0.045-  21 2.50  62 2.50  19 2.51  30 2.64  59 2.64  58 2.64  42 2.64   6 2.64
                             5 2.64
   5  0.036  0.868  0.045-  54 2.50  35 2.50  62 2.51  43 2.64   6 2.64  34 2.64  24 2.64  58 2.64
                             4 2.64
   6  0.036  0.618  0.045-  32 2.50  54 2.50  21 2.51   5 2.64  10 2.64  43 2.64   4 2.64  42 2.64
                            18 2.64
   7  0.619  0.202  0.135-  55 2.49  63 2.49  64 2.49  28 2.50  30 2.50  58 2.51  45 2.64  22 2.64
                            37 2.64  11 2.64  19 2.64  62 2.64
   8  0.369  0.952  0.135-  50 2.49  53 2.49  26 2.50  16 2.50  24 2.50  59 2.51  19 2.64  35 2.64
                            44 2.64  37 2.64  25 2.64  38 2.64
   9  0.035  0.369  0.315-  12 2.49  46 2.49  61 2.49  47 2.64  40 2.64   3 2.64  15 2.64  33 2.64
                            13 2.64  71 2.66  66 2.66  68 2.66
  10  0.036  0.368  0.045-  38 2.50  32 2.50  31 2.51  16 2.64   6 2.64  34 2.64  18 2.64  42 2.64
                            48 2.64
  11  0.869  0.202  0.135-  61 2.49  49 2.49  63 2.49  48 2.50  58 2.50  34 2.51  31 2.64  38 2.64
                            22 2.64  62 2.64   7 2.64  35 2.64
  12  0.952  0.536  0.225-   9 2.49  21 2.49  40 2.49   3 2.49  31 2.49  32 2.50  51 2.64  60 2.64
                            20 2.64  39 2.64  46 2.64  61 2.64
  13  0.285  0.119  0.315-  46 2.49  53 2.49  26 2.49  23 2.64  57 2.64  29 2.64  15 2.64  33 2.64
                             9 2.64  69 2.66  74 2.66  71 2.66
  14  0.535  0.619  0.314-  50 2.49  36 2.49  51 2.49  57 2.64  40 2.64  47 2.64  23 2.64  41 2.65
                            27 2.65  76 2.65  75 2.66  80 2.66
  15  0.285  0.369  0.315-  46 2.49  60 2.49  64 2.49  27 2.64  41 2.64  13 2.64   9 2.64   3 2.64
                            29 2.64  74 2.66  79 2.66  66 2.66
  16  0.286  0.118  0.045-   8 2.50  37 2.50  38 2.51  24 2.64  10 2.64  34 2.64  59 2.64  18 2.64
                            30 2.64
  17  0.536  0.618  0.045-  22 2.50  25 2.50  44 2.51  42 2.64  48 2.64  59 2.64  28 2.64  24 2.64
                            43 2.64
  18  0.286  0.368  0.045-  37 2.50  45 2.50  32 2.51  28 2.64  30 2.64  43 2.64  10 2.64  16 2.64
                             6 2.64
  19  0.619  0.952  0.135-  20 2.49  55 2.49  53 2.50  30 2.50  59 2.50   4 2.51  25 2.64   8 2.64
                            37 2.64  21 2.64   7 2.64  62 2.64
  20  0.702  0.786  0.225-   1 2.49  40 2.49  19 2.49  25 2.49  57 2.49  21 2.50  12 2.64  53 2.64
                            50 2.64  51 2.64  55 2.64  39 2.64
  21  0.869  0.702  0.135-  12 2.49  39 2.49  20 2.50   4 2.50  42 2.50   6 2.51  32 2.64  31 2.64
                            25 2.64  62 2.64  54 2.64  19 2.64
  22  0.619  0.452  0.135-  63 2.49  51 2.49  36 2.49  17 2.50  28 2.50  48 2.51  44 2.64  45 2.64
                             7 2.64  25 2.64  11 2.64  31 2.64
  23  0.285  0.870  0.315-  26 2.49  52 2.49  50 2.49  13 2.64  33 2.64  57 2.64   2 2.64  14 2.64
                            41 2.65  75 2.65  69 2.66  67 2.66
  24  0.286  0.868  0.045-  44 2.50   8 2.50  35 2.51  59 2.64  16 2.64  17 2.64  43 2.64   5 2.64
                            34 2.64
  25  0.619  0.702  0.135-  51 2.49  50 2.49  20 2.49  59 2.50  17 2.50  42 2.51  19 2.64  44 2.64
                             8 2.64  22 2.64  21 2.64  31 2.64
  26  0.202  0.036  0.225-  23 2.49  38 2.49  35 2.49  13 2.49  33 2.49   8 2.50  61 2.64  50 2.64
                            52 2.64  46 2.64  49 2.64  53 2.64
  27  0.535  0.369  0.314-  64 2.49  36 2.49  63 2.49  29 2.64  15 2.64  56 2.64  41 2.64  14 2.65
                            47 2.65  76 2.65  78 2.66  79 2.66
  28  0.536  0.368  0.045-   7 2.50  22 2.50  45 2.51  48 2.64  18 2.64  43 2.64  17 2.64  58 2.64
                            30 2.64
  29  0.535  0.119  0.315-  64 2.49  53 2.49  55 2.49  27 2.64  56 2.64   1 2.64  13 2.64  15 2.64
                            57 2.64  72 2.66  78 2.66  74 2.66
  30  0.536  0.118  0.045-  19 2.50   7 2.50  37 2.51   4 2.64  18 2.64  58 2.64  59 2.64  16 2.64
                            28 2.64
  31  0.869  0.452  0.135-  51 2.49  61 2.49  12 2.49  42 2.50  48 2.50  10 2.51  38 2.64  11 2.64
                            21 2.64  32 2.64  22 2.64  25 2.64
  32  0.119  0.452  0.135-  60 2.49  46 2.49  12 2.50   6 2.50  10 2.50  18 2.51  54 2.64  45 2.64
                            21 2.64  37 2.64  38 2.64  31 2.64
  33  0.035  0.119  0.315-  61 2.49  49 2.49  26 2.49  47 2.64  23 2.64   2 2.64  56 2.64   9 2.64
                            13 2.64  67 2.66  71 2.66  70 2.66
  34  0.036  0.118  0.045-  35 2.50  38 2.50  11 2.51  58 2.64  16 2.64   5 2.64  10 2.64  24 2.64
                            48 2.64
  35  0.119  0.952  0.135-  52 2.49  26 2.49  49 2.50  34 2.50   5 2.50  24 2.51   8 2.64  44 2.64
                            62 2.64  54 2.64  11 2.64  38 2.64
  36  0.452  0.536  0.225-  14 2.49  27 2.49  45 2.49  44 2.49  41 2.49  22 2.49  60 2.64  64 2.64
                            63 2.64  52 2.64  50 2.65  51 2.65
  37  0.369  0.202  0.135-  64 2.49  53 2.49  46 2.50  18 2.50  16 2.50  30 2.51  38 2.64  32 2.64
                             7 2.64   8 2.64  19 2.64  45 2.64
  38  0.119  0.202  0.135-  26 2.49  46 2.49  61 2.49  10 2.50  34 2.50  16 2.51  31 2.64  37 2.64
                            32 2.64  11 2.64   8 2.64  35 2.64
  39  0.952  0.786  0.225-   3 2.49  62 2.49   2 2.49   1 2.49  21 2.49  54 2.50  49 2.64  60 2.64
                            52 2.64  12 2.64  20 2.64  55 2.64
  40  0.785  0.619  0.315-  20 2.49  12 2.49  51 2.49  14 2.64  47 2.64   9 2.64   1 2.64   3 2.64
                            57 2.64  68 2.66  73 2.66  80 2.66
  41  0.285  0.619  0.314-  60 2.49  52 2.49  36 2.49   3 2.64   2 2.64  15 2.64  27 2.64  14 2.65
                            23 2.65  75 2.65  79 2.66  77 2.67
  42  0.786  0.618  0.045-  31 2.50  21 2.50  25 2.51  17 2.64  59 2.64  48 2.64   4 2.64   6 2.64
                            10 2.64
  43  0.286  0.618  0.045-  45 2.50  44 2.50  54 2.51  28 2.64   5 2.64  18 2.64  17 2.64  24 2.64
                             6 2.64
  44  0.369  0.702  0.135-  36 2.49  50 2.49  52 2.50  24 2.50  43 2.50  17 2.51  22 2.64  25 2.64
                            35 2.64   8 2.64  54 2.64  45 2.64
  45  0.369  0.452  0.135-  36 2.49  64 2.49  60 2.50  43 2.50  18 2.50  28 2.51  54 2.64  32 2.64
                             7 2.64  22 2.64  37 2.64  44 2.64
  46  0.202  0.286  0.225-  13 2.49  15 2.49  32 2.49   9 2.49  38 2.49  37 2.50  60 2.64  64 2.64
                            26 2.64  61 2.64  53 2.64  12 2.64
  47  0.786  0.369  0.315-  61 2.49  51 2.49  63 2.49   9 2.64  33 2.64  40 2.64  56 2.64  14 2.64
                            27 2.65  76 2.65  70 2.66  68 2.66
  48  0.786  0.368  0.045-  11 2.50  31 2.50  22 2.51  28 2.64  17 2.64  42 2.64  58 2.64  34 2.64
                            10 2.64
  49  0.952  0.036  0.225-   2 2.49  33 2.49  62 2.49  11 2.49  56 2.49  35 2.50  39 2.64  55 2.64
                            52 2.64  63 2.64  61 2.64  26 2.64
  50  0.452  0.786  0.225-  14 2.49   8 2.49  44 2.49  57 2.49  25 2.49  23 2.49  53 2.64  26 2.64
                            20 2.64  52 2.64  36 2.65  51 2.65
  51  0.703  0.536  0.225-  14 2.49  25 2.49  31 2.49  47 2.49  22 2.49  40 2.49  12 2.64  61 2.64
                            20 2.64  63 2.64  36 2.65  50 2.65
  52  0.202  0.786  0.225-  41 2.49  35 2.49  23 2.49  54 2.49   2 2.49  44 2.50  49 2.64  39 2.64
                            26 2.64  50 2.64  36 2.64  60 2.64
  53  0.452  0.036  0.225-  57 2.49  37 2.49  29 2.49  13 2.49   8 2.49  19 2.50  50 2.64  64 2.64
                            20 2.64  55 2.64  46 2.64  26 2.64
[...]
      1.007995  1.082290  0.987966            0           0           0
      6.283781  8.706163  2.976135            0           0           0
      7.600231  4.897770  4.947607            0           0           0
      4.963537  1.847473  2.976285            0           0           0
      2.323737  1.847712  2.976412            0           0           0
     14.202877  7.184628  4.950473            0           0           0
     11.560258  5.662064  6.923046            0           0           0
      6.277742  5.662057  6.917968            0           0           0
     11.567787  5.654966  0.987763            0           0           0
      6.288344  5.654902  0.987657            0           0           0
      7.603883  6.420029  2.976043            0           0           0
      6.283603  4.133811  2.976267            0           0           0
      3.641995  2.612413  4.951485            0           0           0
     10.245400  3.375264  6.919623            0           0           0
     10.247721  3.368782  0.987752            0           0           0
     10.240290  0.325174  4.951274            0           0           0
      8.922812  7.189178  4.946667            0           0           0
     10.245947  4.897396  4.946556            0           0           0
      6.281886  7.186201  4.948918            0           0           0
      4.963044  0.325436  4.950668            0           0           0
      4.963870  6.419733  2.976344            0           0           0
      7.601993  0.327134  4.950366            0           0           0
      8.920143  1.092741  6.923729            0           0           0
     10.239588  7.949525  6.922850            0           0           0
      8.928128  1.082181  0.988024            0           0           0
     10.247734  7.941044  0.987266            0           0           0
      4.960339  4.898517  4.949034            0           0           0
[...]
     11.557151  4.144714  9.103613            0           0           0
      8.918570  8.715080  9.103476            0           0           0
     10.237438  1.857520  9.102432            0           0           0
      2.316906  1.856898  9.101660            0           0           0
     11.557401  8.716421  9.101450            0           0           0
     12.877647  6.429424  9.101552            0           0           0
      4.958281  1.857188  9.100895            0           0           0
      7.597839  6.429715  9.085316            0           0           0
      8.918036  4.143106  9.084994            0           0           0
      4.958400  6.428833  9.104720            0           0           0
      7.597047  1.858141  9.104810            0           0           0
      6.278088  4.143666  9.099043            0           0           0
     10.237844  6.429741  9.099097            0           0           0
      7.938634  5.079902 12.070428    -0.519394   -0.363711    0.357503
      8.597273  5.443371 12.074840    -0.540874   -0.326106    0.266921

   4 f/i=    0.721650 THz     4.534260 2PiTHz   24.071651 cm-1     2.984505 meV
             X         Y         Z           dx          dy          dz
     12.880356  7.949211  6.921781            0           0           0
      4.962424  7.947853  6.923782            0           0           0
      3.641448  5.664243  6.923592            0           0           0
     12.887720  7.941333  0.987864            0           0           0
      4.968284  7.940902  0.987883            0           0           0
      3.648115  5.654910  0.987889            0           0           0
      7.603449  1.847659  2.976120            0           0           0
      8.923598  8.706422  2.976146            0           0           0
      2.320633  3.378229  6.922481            0           0           0
      2.328399  3.368554  0.987894            0           0           0
     10.243665  1.847492  2.976312            0           0           0
     12.881876  4.900028  4.950675            0           0           0
      3.641938  1.089818  6.922468            0           0           0
      8.923699  5.664829  6.911075            0           0           0
      4.960964  3.377042  6.921706            0           0           0
      3.647896  1.082252  0.987910            0           0           0
      8.928362  5.654909  0.987490            0           0           0
      4.968684  3.368453  0.987734            0           0           0
     11.563289  8.706198  2.976004            0           0           0
     11.562025  7.185083  4.950546            0           0           0
     12.883675  6.419743  2.976164            0           0           0
      8.923477  4.133841  2.976139            0           0           0
      7.601765  7.954306  6.919440            0           0           0
      7.608531  7.941230  0.987539            0           0           0
     10.243612  6.420120  2.976148            0           0           0
      2.320890  0.326994  4.949657            0           0           0
      7.598187  3.374731  6.918028            0           0           0
      7.608220  3.368816  0.987541            0           0           0
      6.282021  1.090684  6.923513            0           0           0
      6.288209  1.082052  0.987641            0           0           0
     11.563944  4.133428  2.976108            0           0           0
      3.643879  4.133784  2.976377            0           0           0
      0.999640  1.089909  6.922863            0           0           0
      1.007995  1.082290  0.987966            0           0           0
      6.283781  8.706163  2.976135            0           0           0
      7.600231  4.897770  4.947607            0           0           0
      4.963537  1.847473  2.976285            0           0           0
      2.323737  1.847712  2.976412            0           0           0
     14.202877  7.184628  4.950473            0           0           0
     11.560258  5.662064  6.923046            0           0           0
      6.277742  5.662057  6.917968            0           0           0
     11.567787  5.654966  0.987763            0           0           0
      6.288344  5.654902  0.987657            0           0           0
      7.603883  6.420029  2.976043            0           0           0
      6.283603  4.133811  2.976267            0           0           0
      3.641995  2.612413  4.951485            0           0           0
     10.245400  3.375264  6.919623            0           0           0
     10.247721  3.368782  0.987752            0           0           0
     10.240290  0.325174  4.951274            0           0           0
      8.922812  7.189178  4.946667            0           0           0
     10.245947  4.897396  4.946556            0           0           0
      6.281886  7.186201  4.948918            0           0           0
      4.963044  0.325436  4.950668            0           0           0
      4.963870  6.419733  2.976344            0           0           0
      7.601993  0.327134  4.950366            0           0           0
      8.920143  1.092741  6.923729            0           0           0
     10.239588  7.949525  6.922850            0           0           0
      8.928128  1.082181  0.988024            0           0           0
     10.247734  7.941044  0.987266            0           0           0
      4.960339  4.898517  4.949034            0           0           0
[...]
     11.557151  4.144714  9.103613            0           0           0
      8.918570  8.715080  9.103476            0           0           0
     10.237438  1.857520  9.102432            0           0           0
      2.316906  1.856898  9.101660            0           0           0
     11.557401  8.716421  9.101450            0           0           0
     12.877647  6.429424  9.101552            0           0           0
      4.958281  1.857188  9.100895            0           0           0
      7.597839  6.429715  9.085316            0           0           0
      8.918036  4.143106  9.084994            0           0           0
      4.958400  6.428833  9.104720            0           0           0
      7.597047  1.858141  9.104810            0           0           0
      6.278088  4.143666  9.099043            0           0           0
     10.237844  6.429741  9.099097            0           0           0
      7.938634  5.079902 12.070428     0.351140   -0.599412   -0.165451
      8.597273  5.443371 12.074840    -0.312653    0.598238    0.185449

[...]

   6 f/i=    3.538845 THz    22.235220 2PiTHz  118.043165 cm-1    14.635492 meV
             X         Y         Z           dx          dy          dz
     12.880356  7.949211  6.921781            0           0           0
      4.962424  7.947853  6.923782            0           0           0
      3.641448  5.664243  6.923592            0           0           0
     12.887720  7.941333  0.987864            0           0           0
      4.968284  7.940902  0.987883            0           0           0
      3.648115  5.654910  0.987889            0           0           0
      7.603449  1.847659  2.976120            0           0           0
      8.923598  8.706422  2.976146            0           0           0
      2.320633  3.378229  6.922481            0           0           0
      2.328399  3.368554  0.987894            0           0           0
     10.243665  1.847492  2.976312            0           0           0
     12.881876  4.900028  4.950675            0           0           0
      3.641938  1.089818  6.922468            0           0           0
      8.923699  5.664829  6.911075            0           0           0
      4.960964  3.377042  6.921706            0           0           0
      3.647896  1.082252  0.987910            0           0           0
      8.928362  5.654909  0.987490            0           0           0
      4.968684  3.368453  0.987734            0           0           0
     11.563289  8.706198  2.976004            0           0           0
     11.562025  7.185083  4.950546            0           0           0
     12.883675  6.419743  2.976164            0           0           0
      8.923477  4.133841  2.976139            0           0           0
      7.601765  7.954306  6.919440            0           0           0
      7.608531  7.941230  0.987539            0           0           0
     10.243612  6.420120  2.976148            0           0           0
      2.320890  0.326994  4.949657            0           0           0
      7.598187  3.374731  6.918028            0           0           0
      7.608220  3.368816  0.987541            0           0           0
      6.282021  1.090684  6.923513            0           0           0
      6.288209  1.082052  0.987641            0           0           0
     11.563944  4.133428  2.976108            0           0           0
      3.643879  4.133784  2.976377            0           0           0
      0.999640  1.089909  6.922863            0           0           0
      1.007995  1.082290  0.987966            0           0           0
      6.283781  8.706163  2.976135            0           0           0
      7.600231  4.897770  4.947607            0           0           0
      4.963537  1.847473  2.976285            0           0           0
      2.323737  1.847712  2.976412            0           0           0
     14.202877  7.184628  4.950473            0           0           0
     11.560258  5.662064  6.923046            0           0           0
      6.277742  5.662057  6.917968            0           0           0
     11.567787  5.654966  0.987763            0           0           0
      6.288344  5.654902  0.987657            0           0           0
      7.603883  6.420029  2.976043            0           0           0
      6.283603  4.133811  2.976267            0           0           0
      3.641995  2.612413  4.951485            0           0           0
     10.245400  3.375264  6.919623            0           0           0
     10.247721  3.368782  0.987752            0           0           0
     10.240290  0.325174  4.951274            0           0           0
      8.922812  7.189178  4.946667            0           0           0
     10.245947  4.897396  4.946556            0           0           0
      6.281886  7.186201  4.948918            0           0           0
      4.963044  0.325436  4.950668            0           0           0
      4.963870  6.419733  2.976344            0           0           0
      7.601993  0.327134  4.950366            0           0           0
      8.920143  1.092741  6.923729            0           0           0
     10.239588  7.949525  6.922850            0           0           0
      8.928128  1.082181  0.988024            0           0           0
     10.247734  7.941044  0.987266            0           0           0
      4.960339  4.898517  4.949034            0           0           0
[...]
     11.557151  4.144714  9.103613            0           0           0
      8.918570  8.715080  9.103476            0           0           0
     10.237438  1.857520  9.102432            0           0           0
      2.316906  1.856898  9.101660            0           0           0
     11.557401  8.716421  9.101450            0           0           0
     12.877647  6.429424  9.101552            0           0           0
      4.958281  1.857188  9.100895            0           0           0
      7.597839  6.429715  9.085316            0           0           0
      8.918036  4.143106  9.084994            0           0           0
      4.958400  6.428833  9.104720            0           0           0
      7.597047  1.858141  9.104810            0           0           0
      6.278088  4.143666  9.099043            0           0           0
     10.237844  6.429741  9.099097            0           0           0
      7.938634  5.079902 12.070428    -0.081854    0.055598   -0.679010
      8.597273  5.443371 12.074840     0.079129   -0.252709    0.677519

 Finite differences POTIM=  1.500000000000000E-002
  LATTYP: Found a hexagonal cell.
 ALAT       =    10.5600004196
 C/A-ratio  =     2.0833332505

  Lattice vectors:

 A1 = (   5.2800002098,  -9.1452286274,   0.0000000000)
 A2 = ( -10.5600004196,   0.0000000000,   0.0000000000)
 A3 = (   0.0000000000,   0.0000000000, -22.0000000000)

Analysis of symmetry for initial positions (statically):
 Subroutine PRICEL returns:
 Original cell was already a primitive cell.

[...]

The static configuration has the point symmetry C_1 .

Analysis of symmetry for dynamics (positions and initial velocities):
 Subroutine PRICEL returns:
 Original cell was already a primitive cell.

[...]

The dynamic configuration has the point symmetry C_1 .

Analysis of constrained symmetry for selective dynamics:
 Subroutine PRICEL returns:
 Original cell was already a primitive cell.

[...]

The constrained configuration has the point symmetry C_1 .

Analysis of structural, dynamic, and magnetic symmetry:
 Subroutine PRICEL returns:
 Original cell was already a primitive cell.

 Routine SETGRP: Setting up the symmetry group for a
 hexagonal supercell.

 Subroutine GETGRP returns: Found  1 space group operations
 (whereof  1 operations were pure point group operations)
 out of a pool of 24 trial point group operations.

The magnetic configuration has the point symmetry C_1 .

 Subroutine INISYM returns: Found  1 space group operations
 (whereof  1 operations are pure point group operations),
 and found     1 'primitive' translations

 KPOINTS: mesh auto

Automatic generation of k-mesh.
Space group operators:
 irot       det(A)        alpha          n_x          n_y          n_z        tau_x        tau_y        tau_z
    1     1.000000     0.000001     1.000000     0.000000     0.000000     0.000000     0.000000     0.000000

 Subroutine IBZKPT returns following result:

 Found      4 irreducible k-points:

 Following reciprocal coordinates:
            Coordinates               Weight
  0.000000  0.000000  0.000000      1.000000
  0.500000  0.000000  0.000000      1.000000
  0.000000  0.500000  0.000000      1.000000
  0.500000  0.500000  0.000000      1.000000

 Following cartesian coordinates:
            Coordinates               Weight
  0.000000  0.000000  0.000000      1.000000
  0.047348 -0.027337  0.000000      1.000000
  0.000000  0.054673  0.000000      1.000000
  0.047348  0.027337  0.000000      1.000000

 TETIRR: Found     12 inequivalent tetrahedra from       24
 BZINTS: Fermi energy:  1.194445;866.000000 electrons
         Band energy:***********;  BLOECHL correction: -0.009618