 vasp.5.4.4.18Apr17-6-g9f103f2a35 (build Nov 30 2020 22:55:02) complex

 executed on             LinuxIFC date 2023.10.01  09:43:27

 INCAR:
 POTCAR:    PAW_PBE Pt 04Feb2005
 POTCAR:    PAW_PBE Pt 04Feb2005
   VRHFIN =Pt: s1d9

   TITEL  = PAW_PBE Pt 04Feb2005
   POMASS =  195.080; ZVAL   =   10.000    mass and valenz
   ENMAX  =  230.283; ENMIN  =  172.712 eV

 Optimization of the real space projectors (new method)

 maximal supplied QI-value         = 14.36
 optimisation between [QCUT,QGAM] = [ 11.92, 23.98] = [ 39.79,161.09] Ry
 Optimized for a Real-space Cutoff    1.49 Angstroem

   l    n(q)    QCUT    max X(q) W(low)/X(q) W(high)/X(q)  e(spline)
   2     10    11.920    66.195    0.79E-04    0.18E-03    0.24E-06
   2     10    11.920    64.643    0.81E-04    0.19E-03    0.24E-06
   0     11    11.920    95.520    0.28E-04    0.54E-04    0.18E-06
   0     11    11.920    63.403    0.27E-04    0.52E-04    0.17E-06
   1     10    11.920    19.961    0.18E-04    0.11E-03    0.23E-06
   1     10    11.920    13.289    0.25E-04    0.87E-04    0.19E-06
  PAW_PBE Pt 04Feb2005                  :

 POSCAR: Pt111\(1\1\1)\(2)
  positions in direct lattice
  velocities in cartesian coordinates
 exchange correlation table for  LEXCH =        8
   RHO(1)=    0.500       N(1)  =     2000
   RHO(2)=  100.500       N(2)  =     4000

 ion  position               nearest neighbor table
   1  1.000  0.000  0.056-   5 2.64   9 2.64  13 2.64  29 2.64  57 2.64  37 2.64  54 2.87  42 2.87
                            14 2.88
   2  0.333  0.167  0.178-  14 2.63   6 2.64  42 2.64  26 2.64  38 2.64  30 2.64  11 2.83   7 2.85
                             9 2.87  13 2.88  21 2.88  15 2.88
   3  0.168  0.334  0.300-  43 2.63  15 2.63   7 2.63  39 2.63  27 2.65  31 2.65   8 2.79   6 2.82
                            10 2.88  14 2.88  48 2.96  12 2.97
   4  0.000  0.000  0.419-  12 2.62  60 2.64  32 2.64  40 2.64  16 2.64   8 2.64   7 2.85  63 2.88
                            27 2.88
   5  1.000  0.250  0.056-   1 2.64  45 2.64  33 2.64   9 2.64  29 2.64  25 2.64  18 2.87  10 2.88
                            14 2.88
   6  0.333  0.417  0.181-  14 2.64   2 2.64  62 2.64  26 2.64  34 2.64  10 2.64   3 2.82  15 2.82
                            43 2.83  49 2.92  45 2.92   9 2.92
   7  0.167  0.085  0.299-   3 2.63  15 2.63  11 2.64  27 2.64  35 2.65  63 2.65   4 2.85  16 2.85
                             2 2.85  14 2.85  42 2.87  12 2.96
   8  0.999  0.250  0.416-  28 2.63  32 2.63  36 2.64   4 2.64  48 2.66  12 2.66   3 2.79  31 2.83
                            27 2.83
   9  0.250  0.250  0.056-  21 2.64  13 2.64   1 2.64  49 2.64  45 2.64   5 2.64  14 2.87   2 2.87
                             6 2.92
  10  0.084  0.417  0.178-  34 2.63   6 2.64  46 2.64  14 2.64  22 2.64  18 2.64  31 2.83  39 2.86
                            45 2.87  33 2.87   5 2.88   3 2.88
  11  0.417  0.083  0.297-  47 2.63  35 2.64   7 2.64  23 2.64  19 2.65  15 2.65   2 2.83  30 2.83
                            38 2.83  24 2.83  16 2.88  20 2.90
  12  0.249  0.247  0.427-   4 2.62  16 2.62  24 2.66   8 2.66  52 2.68  48 2.68   7 2.96  15 2.97
                             3 2.97
  13  0.250  0.000  0.056-  21 2.64   9 2.64  17 2.64   1 2.64  37 2.64  41 2.64  38 2.87  42 2.87
                             2 2.88
  14  0.084  0.167  0.178-   2 2.63   6 2.64  42 2.64  10 2.64  54 2.64  18 2.64  27 2.83   7 2.85
                             9 2.87   1 2.88   5 2.88   3 2.88
  15  0.416  0.334  0.300-  43 2.63   3 2.63   7 2.63  55 2.63  11 2.65  19 2.65  24 2.79   6 2.82
                            26 2.88   2 2.88  52 2.96  12 2.97
  16  0.250  0.000  0.419-  12 2.62  44 2.64  20 2.64  40 2.64   4 2.64  24 2.64   7 2.85  35 2.88
                            11 2.88
  17  0.500  0.000  0.056-  29 2.64  25 2.64  13 2.64  21 2.64  41 2.64  53 2.64  38 2.87  58 2.87
                            30 2.87
  18  0.833  0.167  0.178-  58 2.64  30 2.64  22 2.64  54 2.64  10 2.64  14 2.64  27 2.83  31 2.83
                            23 2.86  25 2.87   5 2.87  29 2.87
  19  0.667  0.334  0.297-  31 2.63  59 2.64  55 2.64  23 2.64  11 2.65  15 2.65  26 2.83  30 2.83
                            22 2.83  24 2.83  64 2.88  28 2.90
  20  0.500  0.000  0.420-  56 2.63  24 2.63  44 2.64  16 2.64  32 2.64  28 2.64  23 2.87  11 2.90
                            47 2.90
  21  0.500  0.250  0.056-  25 2.64  61 2.64   9 2.64  13 2.64  49 2.64  17 2.64  30 2.87  26 2.88
                             2 2.88
  22  0.833  0.417  0.177-  50 2.64  18 2.64  46 2.64  30 2.64  26 2.64  10 2.64  19 2.83  31 2.83
                            59 2.84  61 2.87  33 2.87  25 2.87
  23  0.667  0.083  0.298-  11 2.64  27 2.64  47 2.64  51 2.64  31 2.64  19 2.64  18 2.86  30 2.86
                            58 2.86  32 2.87  20 2.87  28 2.88
  24  0.501  0.250  0.416-  28 2.63  20 2.63  64 2.64  16 2.64  52 2.66  12 2.66  15 2.79  19 2.83
                            11 2.83
  25  0.750  0.250  0.056-  17 2.64  21 2.64  29 2.64  61 2.64  33 2.64   5 2.64  22 2.87  18 2.87
                            30 2.87
  26  0.583  0.417  0.178-  62 2.63   6 2.64  50 2.64   2 2.64  22 2.64  30 2.64  19 2.83  55 2.86
                            49 2.87  61 2.87  21 2.88  15 2.88
  27  0.917  0.083  0.297-  51 2.63  63 2.64  23 2.64   7 2.64  31 2.65   3 2.65  14 2.83  18 2.83
                            54 2.83   8 2.83   4 2.88  32 2.90
  28  0.750  0.250  0.420-   8 2.63  24 2.63  64 2.64  36 2.64  20 2.64  32 2.64  23 2.88  31 2.90
                            19 2.90
  29  0.750  0.000  0.056-  17 2.64  25 2.64   5 2.64  53 2.64   1 2.64  57 2.64  54 2.87  58 2.87
                            18 2.87
  30  0.583  0.167  0.178-  58 2.64  18 2.64  22 2.64  38 2.64  26 2.64   2 2.64  11 2.83  19 2.83
                            23 2.86  25 2.87  21 2.87  17 2.87
  31  0.917  0.334  0.297-  19 2.63  59 2.64  39 2.64  23 2.64  27 2.65   3 2.65  10 2.83  18 2.83
                            22 2.83   8 2.83  36 2.88  28 2.90
  32  0.750  0.000  0.420-  56 2.63   8 2.63  60 2.64   4 2.64  20 2.64  28 2.64  23 2.87  27 2.90
                            51 2.90
  33  1.000  0.500  0.056-  37 2.64  41 2.64   5 2.64  45 2.64  25 2.64  61 2.64  46 2.87  22 2.87
                            10 2.87
  34  0.333  0.666  0.178-  10 2.63   6 2.64  46 2.64  62 2.64  38 2.64  58 2.64  47 2.83  39 2.85
                            45 2.87  41 2.88  53 2.88  43 2.88
  35  0.167  0.833  0.297-  11 2.64  47 2.64  59 2.64  63 2.64  39 2.65   7 2.65  42 2.84  38 2.84
                            46 2.84  40 2.85  44 2.87  16 2.88
  36  0.000  0.500  0.419-  48 2.62  64 2.64  40 2.64  28 2.64  44 2.64   8 2.64  39 2.85  59 2.87
                            31 2.88
  37  1.000  0.750  0.056-  33 2.64  41 2.64  61 2.64  57 2.64  13 2.64   1 2.64  50 2.87  46 2.87
                            42 2.87
  38  0.333  0.917  0.177-  42 2.64  46 2.64  30 2.64  58 2.64   2 2.64  34 2.64  47 2.83  11 2.83
                            35 2.84  13 2.87  17 2.87  41 2.87
  39  0.167  0.583  0.299-  43 2.63   3 2.63  47 2.64  31 2.64  35 2.65  59 2.65  34 2.85  36 2.85
                            44 2.86  10 2.86  46 2.87  48 2.96
  40  0.000  0.750  0.418-  36 2.64  64 2.64  44 2.64  60 2.64   4 2.64  16 2.64  35 2.85  63 2.85
                            59 2.85
  41  0.250  0.750  0.056-  45 2.64  33 2.64  37 2.64  53 2.64  17 2.64  13 2.64  46 2.87  38 2.87
                            34 2.88
  42  0.083  0.917  0.177-   2 2.64  14 2.64  38 2.64  54 2.64  46 2.64  50 2.64  63 2.84  35 2.84
                            13 2.87   1 2.87  37 2.87   7 2.87
  43  0.416  0.583  0.300-   3 2.63  15 2.63  55 2.63  39 2.63  51 2.65  47 2.65  56 2.79   6 2.83
                            62 2.88  34 2.88  48 2.96  52 2.96
  44  0.250  0.750  0.419-  48 2.62  16 2.64  20 2.64  40 2.64  36 2.64  56 2.64  39 2.86  35 2.87
                            47 2.88
  45  0.250  0.500  0.056-  41 2.64  53 2.64   5 2.64   9 2.64  49 2.64  33 2.64  10 2.87  34 2.87
                             6 2.92
  46  0.083  0.667  0.177-  10 2.64  34 2.64  38 2.64  22 2.64  42 2.64  50 2.64  59 2.84  35 2.84
                            41 2.87  33 2.87  37 2.87  39 2.87
  47  0.417  0.834  0.297-  11 2.63  35 2.64  39 2.64  23 2.64  51 2.65  43 2.65  58 2.83  34 2.83
                            38 2.83  56 2.83  44 2.88  20 2.90
  48  0.249  0.502  0.426-  44 2.62  36 2.62  56 2.65   8 2.66  12 2.68  52 2.68  39 2.96  43 2.96
                             3 2.96
  49  0.500  0.500  0.056-  61 2.64  53 2.64  57 2.64  21 2.64   9 2.64  45 2.64  26 2.87  62 2.87
                             6 2.92
  50  0.833  0.667  0.177-  62 2.64  26 2.64  54 2.64  22 2.64  42 2.64  46 2.64  59 2.84  63 2.84
                            57 2.87  61 2.87  37 2.87  55 2.87
  51  0.667  0.834  0.297-  27 2.63  63 2.64  55 2.64  23 2.64  47 2.65  43 2.65  58 2.83  62 2.83
                            54 2.83  56 2.83  60 2.88  32 2.90
  52  0.503  0.502  0.426-  60 2.62  64 2.62  56 2.65  24 2.66  12 2.68  48 2.68  55 2.96  43 2.96
                            15 2.96
  53  0.500  0.750  0.056-  49 2.64  57 2.64  45 2.64  41 2.64  29 2.64  17 2.64  58 2.87  34 2.88
                            62 2.88
  54  0.833  0.917  0.177-  42 2.64  50 2.64  58 2.64  18 2.64  62 2.64  14 2.64  51 2.83  27 2.83
                            63 2.84   1 2.87  29 2.87  57 2.87
  55  0.665  0.583  0.299-  43 2.63  15 2.63  19 2.64  51 2.64  59 2.65  63 2.65  62 2.85  64 2.85
                            60 2.86  26 2.86  50 2.87  52 2.96
  56  0.501  0.751  0.416-  20 2.63  32 2.63  44 2.64  60 2.64  48 2.65  52 2.65  43 2.79  47 2.83
                            51 2.83
  57  0.750  0.750  0.056-  61 2.64  49 2.64  53 2.64  37 2.64   1 2.64  29 2.64  50 2.87  54 2.87
                            62 2.88
  58  0.583  0.917  0.178-  18 2.64  30 2.64  38 2.64  54 2.64  34 2.64  62 2.64  47 2.83  51 2.83
                            23 2.86  17 2.87  29 2.87  53 2.87
  59  0.917  0.584  0.297-  31 2.64  19 2.64  63 2.64  35 2.64  55 2.65  39 2.65  46 2.84  50 2.84
                            22 2.84  40 2.85  36 2.87  64 2.87
  60  0.750  0.750  0.419-  52 2.62   4 2.64  32 2.64  40 2.64  64 2.64  56 2.64  55 2.86  63 2.87
                            51 2.88
  61  0.750  0.500  0.056-  49 2.64  57 2.64  21 2.64  25 2.64  37 2.64  33 2.64  50 2.87  22 2.87
                            26 2.87
  62  0.583  0.666  0.178-  26 2.63   6 2.64  50 2.64  34 2.64  54 2.64  58 2.64  51 2.83  55 2.85
                            49 2.87  57 2.88  53 2.88  43 2.88
  63  0.917  0.833  0.297-  27 2.64  51 2.64  59 2.64  35 2.64  55 2.65   7 2.65  42 2.84  54 2.84
                            50 2.84  40 2.85  60 2.87   4 2.88
  64  0.750  0.500  0.419-  52 2.62  36 2.64  40 2.64  28 2.64  60 2.64  24 2.64  55 2.85  59 2.87
                            19 2.88

  LATTYP: Found a hexagonal cell.
 ALAT       =    10.5600004196
 C/A-ratio  =     1.8939393187

  Lattice vectors:

 A1 = (  10.5600004196,   0.0000000000,   0.0000000000)
 A2 = (  -5.2800002098,   9.1452286274,   0.0000000000)
 A3 = (   0.0000000000,   0.0000000000,  20.0000000000)

[...]

         DFTD3 V3.0 Rev 1
 Edisp (eV)  -38.63654

 E6    (eV) :   -14.2372
 E8    (eV) :   -24.3993
 % E8        : 63.15

  FORCE on cell =-STRESS in cart. coord.  units (eV):
  Direction    XX          YY          ZZ          XY          YZ          ZX
  Alpha Z  2015.86452  2015.86452  2015.86452
  Ewald  162633.25146162631.92155************     0.02624    -0.67850    -0.02690
  Hartree173517.05803173516.68305************     0.00738    -0.13818    -0.00549
  E(xc)   -2855.78511 -2855.79710 -2881.49931     0.00024    -0.00806    -0.00032
  Local  ************************358283.65021    -0.02700     0.55423     0.02204
  n-local   577.78072   577.66187   312.10941     0.00184    -0.00037    -0.00016
  augment  3252.29775  3252.45174  3534.81682    -0.00344     0.09856     0.00387
  Kinetic  9148.26812  9148.61806  9744.05953    -0.00704     0.20908     0.00833
  Fock        0.00000     0.00000     0.00000     0.00000     0.00000     0.00000
  vdW       -53.50229   -53.48141   -28.75615    -0.00040    -0.00368    -0.00014
  Total      80.88514    80.96709    -1.90290    -0.00219     0.03307     0.00123
  in kB      67.09510    67.16308    -1.57848    -0.00181     0.02744     0.00102

 VOLUME and BASIS-vectors are now :
  energy-cutoff  :      550.00
  volume of cell :     1931.47
      direct lattice vectors                 reciprocal lattice vectors
    10.560000420  0.000000000  0.000000000     0.094696966  0.054673319  0.000000000
    -5.280000210  9.145228627  0.000000000     0.000000000  0.109346638  0.000000000
     0.000000000  0.000000000 20.000000000     0.000000000  0.000000000  0.050000000

  length of vectors
    10.560000420 10.560000420 20.000000000     0.109346638  0.109346638  0.050000000

 FORCES acting on ions
    electron-ion (+dipol)            ewald-force                    non-local-force                 convergence-correction
   -.922E+00 -.386E+01 0.231E+04   0.933E+00 0.386E+01 -.231E+04   0.152E-02 0.237E-01 -.115E+00   0.467E-02 -.278E-02 0.190E-01
   0.261E+01 -.485E+01 0.774E+03   -.265E+01 0.491E+01 -.774E+03   0.414E-01 -.703E-01 -.417E+00   -.380E-02 0.526E-02 0.239E-01
   -.591E+00 -.293E+00 -.805E+03   0.599E+00 0.296E+00 0.805E+03   0.985E-02 0.683E-02 0.260E+00   -.265E-02 -.128E-02 -.274E-01
   0.157E+01 0.527E+01 -.230E+04   -.153E+01 -.520E+01 0.230E+04   -.364E-01 -.407E-01 0.868E-01   -.695E-02 -.121E-01 -.184E-01
   -.405E+01 -.232E+01 0.231E+04   0.410E+01 0.235E+01 -.231E+04   -.145E-01 -.773E-02 -.726E-01   0.607E-02 0.317E-02 0.183E-01
   -.210E-02 -.185E-01 0.750E+03   0.212E-02 0.165E-01 -.750E+03   -.118E-03 0.378E-02 -.662E+00   0.369E-04 -.143E-03 0.334E-01
   0.818E-02 -.258E+00 -.781E+03   -.842E-02 0.306E+00 0.781E+03   -.231E-03 -.374E-01 0.395E+00   0.248E-03 -.814E-03 -.293E-01
   0.686E+01 0.389E+01 -.230E+04   -.675E+01 -.383E+01 0.230E+04   -.738E-01 -.412E-01 0.873E-01   -.198E-01 -.962E-02 -.567E-01
   -.233E-02 -.558E+01 0.230E+04   0.234E-02 0.561E+01 -.230E+04   -.152E-04 0.240E-01 -.228E-01   -.361E-04 0.284E-03 0.190E-01
   -.550E+01 0.157E+00 0.775E+03   0.557E+01 -.151E+00 -.774E+03   -.834E-01 0.251E-02 -.415E+00   0.692E-02 -.196E-04 0.242E-01
   0.281E+00 0.963E+00 -.769E+03   -.285E+00 -.972E+00 0.769E+03   0.365E-02 -.441E-02 0.419E+00   0.267E-02 0.463E-02 -.171E-01
   0.993E-03 0.722E+01 -.233E+04   -.113E-02 -.715E+01 0.233E+04   0.233E-03 -.538E-01 0.164E+00   0.191E-03 -.689E-02 0.184E-01
   0.920E+00 -.386E+01 0.231E+04   -.931E+00 0.386E+01 -.231E+04   -.157E-02 0.237E-01 -.115E+00   -.473E-02 -.280E-02 0.190E-01
   -.261E+01 -.484E+01 0.774E+03   0.265E+01 0.490E+01 -.774E+03   -.411E-01 -.706E-01 -.417E+00   0.378E-02 0.531E-02 0.238E-01
   0.591E+00 -.301E+00 -.805E+03   -.599E+00 0.304E+00 0.805E+03   -.990E-02 0.711E-02 0.260E+00   0.253E-02 -.136E-02 -.274E-01
   -.156E+01 0.527E+01 -.230E+04   0.152E+01 -.520E+01 0.230E+04   0.364E-01 -.409E-01 0.869E-01   0.688E-02 -.120E-01 -.185E-01
   -.652E-01 -.410E-01 0.231E+04   0.608E-01 0.375E-01 -.231E+04   0.108E-01 0.673E-02 -.142E+00   -.688E-02 -.374E-02 0.154E-01
   -.138E+01 -.772E+00 0.782E+03   0.139E+01 0.775E+00 -.782E+03   -.236E-01 -.132E-01 -.381E+00   0.144E-01 0.810E-02 0.158E-01
   -.668E+00 -.706E+00 -.769E+03   0.675E+00 0.714E+00 0.769E+03   0.549E-02 0.463E-03 0.421E+00   -.262E-02 -.400E-02 -.166E-01
   0.114E+00 0.153E+00 -.231E+04   -.121E+00 -.154E+00 0.231E+04   0.377E-02 0.156E-02 0.103E+00   -.259E-02 -.267E-02 -.169E-01
   0.405E+01 -.232E+01 0.231E+04   -.410E+01 0.235E+01 -.231E+04   0.144E-01 -.772E-02 -.725E-01   -.605E-02 0.321E-02 0.183E-01
   -.320E-02 0.332E+00 0.788E+03   0.328E-02 -.327E+00 -.788E+03   0.151E-03 -.190E-01 -.342E+00   -.140E-03 0.930E-02 0.911E-02
   0.266E-02 0.192E-01 -.778E+03   -.270E-02 -.178E-01 0.778E+03   0.965E-04 0.141E-02 0.332E+00   -.587E-04 -.919E-03 0.201E-01
   -.686E+01 0.390E+01 -.230E+04   0.675E+01 -.383E+01 0.230E+04   0.739E-01 -.412E-01 0.872E-01   0.198E-01 -.969E-02 -.567E-01
   0.543E-03 0.865E-01 0.231E+04   -.603E-03 -.825E-01 -.231E+04   -.182E-04 -.114E-01 -.142E+00   0.253E-04 0.763E-02 0.153E-01
   0.551E+01 0.158E+00 0.775E+03   -.558E+01 -.152E+00 -.774E+03   0.833E-01 0.260E-02 -.415E+00   -.673E-02 -.521E-04 0.243E-01
   -.292E+00 0.961E+00 -.769E+03   0.296E+00 -.970E+00 0.769E+03   -.330E-02 -.414E-02 0.419E+00   -.284E-02 0.462E-02 -.171E-01
   0.174E-02 -.224E+00 -.231E+04   -.156E-02 0.230E+00 0.231E+04   -.107E-03 -.126E-02 0.104E+00   -.129E-03 0.463E-02 -.164E-01
   0.673E-01 -.419E-01 0.231E+04   -.630E-01 0.384E-01 -.231E+04   -.109E-01 0.677E-02 -.142E+00   0.694E-02 -.373E-02 0.154E-01
   0.138E+01 -.775E+00 0.782E+03   -.139E+01 0.778E+00 -.782E+03   0.238E-01 -.129E-01 -.381E+00   -.145E-01 0.835E-02 0.159E-01
   0.666E+00 -.714E+00 -.769E+03   -.673E+00 0.722E+00 0.769E+03   -.521E-02 0.752E-03 0.421E+00   0.257E-02 -.406E-02 -.165E-01
   -.123E+00 0.160E+00 -.231E+04   0.130E+00 -.161E+00 0.231E+04   -.321E-02 0.113E-02 0.103E+00   0.251E-02 -.271E-02 -.169E-01
   -.380E+01 0.112E+01 0.231E+04   0.380E+01 -.111E+01 -.231E+04   0.212E-01 -.946E-02 -.115E+00   -.218E-03 0.536E-02 0.186E-01
   -.290E+01 0.464E+01 0.775E+03   0.293E+01 -.471E+01 -.774E+03   -.414E-01 0.735E-01 -.416E+00   0.314E-02 -.621E-02 0.239E-01
   -.559E+00 -.257E+00 -.766E+03   0.586E+00 0.275E+00 0.766E+03   -.129E-01 -.890E-02 0.394E+00   -.974E-02 -.598E-02 -.547E-02
   0.523E+01 -.122E+01 -.230E+04   -.516E+01 0.122E+01 0.230E+04   -.540E-01 -.121E-01 0.880E-01   -.128E-01 -.102E-02 -.194E-01
   -.232E-03 -.133E-01 0.231E+04   0.244E-03 0.115E-01 -.231E+04   -.525E-04 0.101E-02 -.116E+00   -.137E-04 0.317E-03 0.191E-01
   -.303E+00 -.198E+00 0.788E+03   0.299E+00 0.194E+00 -.787E+03   0.172E-01 0.115E-01 -.344E+00   -.874E-02 -.444E-02 0.818E-02
   -.187E+00 0.769E-01 -.780E+03   0.228E+00 -.985E-01 0.780E+03   -.331E-01 0.185E-01 0.397E+00   -.120E-02 0.326E-03 -.282E-01
   -.455E-02 -.590E-01 -.229E+04   0.439E-02 0.597E-01 0.229E+04   0.312E-03 0.264E-02 0.882E-01   0.163E-03 0.293E-03 -.399E-01
   -.287E+01 0.271E+01 0.231E+04   0.287E+01 -.272E+01 -.231E+04   0.193E-01 -.123E-01 -.115E+00   -.498E-02 -.230E-02 0.188E-01
   -.207E-02 -.294E+01 0.783E+03   0.196E-02 0.297E+01 -.783E+03   0.224E-04 -.209E-01 -.329E+00   0.480E-04 -.110E-02 0.176E-01
   -.386E-02 0.587E+00 -.805E+03   0.410E-02 -.595E+00 0.805E+03   0.645E-04 -.113E-01 0.259E+00   -.901E-04 0.289E-02 -.266E-01
   0.371E+01 -.390E+01 -.230E+04   -.367E+01 0.384E+01 0.231E+04   -.192E-01 0.536E-01 0.884E-01   -.517E-02 0.973E-02 -.190E-01
   -.485E+01 0.280E+01 0.230E+04   0.487E+01 -.281E+01 -.230E+04   0.205E-01 -.111E-01 -.224E-01   0.530E-03 -.506E-03 0.189E-01
   -.253E+01 0.144E+01 0.783E+03   0.256E+01 -.146E+01 -.783E+03   -.183E-01 0.118E-01 -.330E+00   -.137E-02 0.121E-02 0.178E-01
   0.942E+00 -.173E+00 -.769E+03   -.953E+00 0.177E+00 0.769E+03   -.674E-03 0.485E-02 0.421E+00   0.559E-02 -.349E-03 -.163E-01
   0.633E+01 -.371E+01 -.233E+04   -.626E+01 0.367E+01 0.233E+04   -.501E-01 0.308E-01 0.161E+00   -.726E-02 0.420E-02 0.172E-01
   0.485E+01 0.280E+01 0.230E+04   -.487E+01 -.281E+01 -.230E+04   -.205E-01 -.111E-01 -.224E-01   -.542E-03 -.472E-03 0.189E-01
   0.253E+01 0.144E+01 0.783E+03   -.256E+01 -.146E+01 -.783E+03   0.183E-01 0.119E-01 -.330E+00   0.132E-02 0.118E-02 0.179E-01
   -.941E+00 -.168E+00 -.769E+03   0.953E+00 0.172E+00 0.769E+03   0.710E-03 0.459E-02 0.421E+00   -.559E-02 -.220E-03 -.165E-01
   -.632E+01 -.371E+01 -.233E+04   0.625E+01 0.368E+01 0.233E+04   0.500E-01 0.309E-01 0.161E+00   0.712E-02 0.408E-02 0.173E-01
   0.880E-04 0.465E+01 0.231E+04   -.163E-03 -.471E+01 -.231E+04   -.416E-04 0.176E-01 -.729E-01   0.295E-04 -.677E-02 0.182E-01
   0.301E+00 -.199E+00 0.788E+03   -.297E+00 0.195E+00 -.788E+03   -.170E-01 0.116E-01 -.344E+00   0.861E-02 -.446E-02 0.819E-02
   0.198E+00 0.778E-01 -.780E+03   -.239E+00 -.994E-01 0.780E+03   0.329E-01 0.184E-01 0.397E+00   0.141E-02 0.270E-03 -.283E-01
   0.754E-03 -.783E+01 -.230E+04   -.568E-03 0.770E+01 0.230E+04   -.493E-03 0.795E-01 0.865E-01   -.310E-04 0.230E-01 -.564E-01
   0.287E+01 0.271E+01 0.231E+04   -.287E+01 -.272E+01 -.231E+04   -.194E-01 -.123E-01 -.115E+00   0.496E-02 -.225E-02 0.188E-01
   -.386E-03 0.157E+01 0.782E+03   0.214E-03 -.158E+01 -.782E+03   0.160E-03 0.285E-01 -.380E+00   0.866E-04 -.159E-01 0.161E-01
   -.239E-02 0.601E+00 -.766E+03   0.257E-02 -.631E+00 0.765E+03   -.494E-05 0.161E-01 0.391E+00   -.878E-04 0.103E-01 -.464E-02
   -.370E+01 -.391E+01 -.230E+04   0.366E+01 0.385E+01 0.230E+04   0.189E-01 0.537E-01 0.883E-01   0.511E-02 0.983E-02 -.190E-01
   0.380E+01 0.112E+01 0.231E+04   -.381E+01 -.111E+01 -.231E+04   -.213E-01 -.947E-02 -.115E+00   0.228E-03 0.537E-02 0.186E-01
   0.290E+01 0.465E+01 0.775E+03   -.293E+01 -.472E+01 -.774E+03   0.422E-01 0.733E-01 -.416E+00   -.314E-02 -.610E-02 0.239E-01
   0.562E+00 -.263E+00 -.766E+03   -.589E+00 0.281E+00 0.766E+03   0.127E-01 -.883E-02 0.394E+00   0.975E-02 -.618E-02 -.548E-02
   -.524E+01 -.122E+01 -.230E+04   0.517E+01 0.122E+01 0.230E+04   0.543E-01 -.119E-01 0.880E-01   0.128E-01 -.115E-02 -.194E-01
   0.444E-03 0.502E-02 0.119E+00   -.517E-12 0.487E-12 -.182E-11   0.191E-02 0.498E-01 -.163E+00   -.319E-03 -.393E-02 0.987E-02

 POSITION                                       TOTAL-FORCE (eV/Angst)
     10.55998      0.00001      1.11585         0.018210      0.017053     -0.023913
      2.63839      1.52894      3.56403        -0.009266     -0.005764     -0.020450
      0.00180      3.05101      6.01003         0.019633      0.010625     -0.039948
      0.00057      0.00181      8.38261        -0.006202      0.011066     -0.005136
      9.23998      2.28632      1.11585         0.045961      0.025386      0.035317
      1.31999      3.81054      3.61250        -0.000078      0.000843     -0.048616
      1.32005      0.76931      5.96284        -0.000251      0.004273      0.005699
     -1.32162      2.28761      8.38304         0.022029      0.014163      0.022104
      1.31998      2.28632      1.11585        -0.000067      0.050830      0.103951
     -1.31518      3.80978      3.56386        -0.000653      0.010676     -0.021250
      3.96011      0.76436      5.94193        -0.002260     -0.008454      0.012168
      1.32004      2.28730      8.45701         0.000250      0.009490     -0.006359
      2.63998      0.00001      1.11585        -0.018411      0.017034     -0.023866
      0.00158      1.52895      3.56401         0.009456     -0.006085     -0.020248
      2.63826      3.05102      6.01004        -0.019772      0.011015     -0.039554
      2.63954      0.00182      8.38260         0.006349      0.010997     -0.005010
      5.27998      0.00001      1.11585        -0.001994     -0.002118     -0.020164
      7.92039      1.52472      3.54793         0.002019     -0.000059      0.001367
      5.27968      3.04979      5.94162         0.006383      0.007442      0.013024
      5.27922      0.00196      8.38330        -0.006477     -0.003255      0.001045
      3.95998      2.28632      1.11585        -0.046172      0.025394      0.035377
      6.59997      3.81118      3.53703         0.000069     -0.004277      0.021447
      6.60002      0.76381      5.95588        -0.000040      0.001096     -0.048924
      3.96173      2.28762      8.38311        -0.021942      0.014277      0.021900
      6.59998      2.28632      1.11585        -0.000085      0.001096     -0.020797
      3.95516      3.80978      3.56389         0.000389      0.010774     -0.021535
      9.23995      0.76434      5.94190         0.002693     -0.008293      0.012197
      6.60006      2.28950      8.38357        -0.000086      0.009825      0.001130
      7.91998      0.00001      1.11585         0.001790     -0.002088     -0.020152
      5.27957      1.52471      3.54793        -0.001901      0.000122      0.001261
      7.92037      3.04977      5.94161        -0.006151      0.007748      0.012949
      7.92088      0.00198      8.38329         0.006913     -0.003608      0.001013
      7.91998      4.57263      1.11585         0.024630      0.005899     -0.024226
      0.00318      6.09328      3.56386        -0.009357     -0.005493     -0.020155
     -2.63826      7.62382      5.93610         0.003063      0.000984     -0.009633
     -2.63994      4.57553      8.38219         0.005693     -0.011686     -0.003953
      6.59998      6.85894      1.11585        -0.000085     -0.001270     -0.038915
     -1.32031      8.38316      3.53714         0.002906      0.001866      0.020871
     -1.31520      5.33373      5.96215         0.002506     -0.001266      0.006794
     -3.95995      6.86085      8.35040         0.000284      0.002725      0.033508
     -1.32002      6.85894      1.11585         0.006232     -0.026097     -0.024450
     -3.96003      8.38571      3.54339        -0.000069      0.010721     -0.007004
      1.32005      5.33437      6.00965         0.000173     -0.022286     -0.039955
     -1.32039      6.86087      8.38314         0.011240      0.003923     -0.005341
     -0.00002      4.57263      1.11585         0.044901     -0.027262      0.104163
     -2.63804      6.09596      3.54337         0.009789     -0.006030     -0.006869
      0.00040      7.62262      5.94171        -0.008333      0.002293      0.013532
     -0.00076      4.57536      8.45490         0.005667     -0.001975     -0.005723
      2.63998      4.57263      1.11585        -0.045058     -0.027286      0.104201
      5.27798      6.09596      3.54337        -0.009890     -0.005955     -0.006943
      2.63969      7.62264      5.94170         0.008353      0.002029      0.013478
      2.64089      4.57536      8.45498        -0.005591     -0.002007     -0.005681
      1.31998      6.85894      1.11585        -0.000121     -0.054201      0.035404
      3.96025      8.38316      3.53712        -0.002935      0.001924      0.020798
      3.95530      5.33375      5.96217        -0.002777     -0.001323      0.006756
      1.32008      6.86335      8.38276        -0.000369     -0.028113      0.021151
      3.95998      6.85894      1.11585        -0.006435     -0.026127     -0.024438
      1.31997      8.38285      3.54796         0.000041     -0.002479      0.001617
      6.60005      5.33448      5.93603         0.000056     -0.002539     -0.011759
      3.96055      6.86087      8.38309        -0.011418      0.004070     -0.005368
      5.27998      4.57263      1.11585        -0.024834      0.005906     -0.024216
      2.63675      6.09328      3.56386         0.009901     -0.005658     -0.020217
      5.27838      7.62381      5.93604        -0.003109      0.001168     -0.009531
      5.28005      4.57551      8.38219        -0.005390     -0.011680     -0.003921
    total drift:                                0.002031      0.050908     -0.033932

  FREE ENERGIE OF THE ION-ELECTRON SYSTEM (eV)
  free  energy   TOTEN  =      -405.07985882 eV

  energy  without entropy=     -405.06039961  energy(sigma->0) =     -405.07337242

 d Force = 0.1404968E-02[ 0.111E-02, 0.170E-02]  d Energy = 0.1427759E-02-0.228E-04
 d Force =-0.1783013E+01[-0.177E+01,-0.180E+01]  d Ewald  =-0.1783021E+01 0.816E-05

 Conjugate gradient step on ions:
 trial-energy change:   -0.001428  1 .order   -0.001405   -0.001702   -0.001108
  (g-gl).g = 0.227E-02      g.g   = 0.246E-02  gl.gl    = 0.732E-02
 g(Force)  = 0.246E-02   g(Stress)= 0.000E+00 ortho     =-0.193E-03
 gamma     =   0.30986
 trial     =   0.70789
 opt step  =   2.02728  (harmonic =   2.02728) maximal distance =0.01044797
 next E    =  -405.080868   (d E  =  -0.00244)

 reached required accuracy - stopping structural energy minimisation