 vasp.5.4.4.18Apr17-6-g9f103f2a35 (build Nov 30 2020 22:55:02) complex

 executed on             LinuxIFC date 2023.06.04  11:32:24

 INCAR:
 POTCAR:    PAW_PBE Pt 04Feb2005
 POTCAR:    PAW_PBE Fe 06Sep2000
 POTCAR:    PAW_PBE Co 02Aug2007
 POTCAR:    PAW_PBE Cu 22Jun2005
 POTCAR:    PAW_PBE Ni 02Aug2007
 POTCAR:    PAW_PBE H 15Jun2001
 POTCAR:    PAW_PBE Pt 04Feb2005
   VRHFIN =Pt: s1d9

   TITEL  = PAW_PBE Pt 04Feb2005
   POMASS =  195.080; ZVAL   =   10.000    mass and valenz
   ENMAX  =  230.283; ENMIN  =  172.712 eV

 POTCAR:    PAW_PBE Fe 06Sep2000
   VRHFIN =Fe:  d7 s1

   TITEL  = PAW_PBE Fe 06Sep2000
   POMASS =   55.847; ZVAL   =    8.000    mass and valenz
   ENMAX  =  267.882; ENMIN  =  200.911 eV

 POTCAR:    PAW_PBE Co 02Aug2007
   VRHFIN =Co: d8 s1

   TITEL  = PAW_PBE Co 02Aug2007
   POMASS =   58.933; ZVAL   =    9.000    mass and valenz
   ENMAX  =  267.968; ENMIN  =  200.976 eV

 POTCAR:    PAW_PBE Cu 22Jun2005
   VRHFIN =Cu: d10 p1

   TITEL  = PAW_PBE Cu 22Jun2005
   POMASS =   63.546; ZVAL   =   11.000    mass and valenz
   ENMAX  =  295.446; ENMIN  =  221.585 eV

 POTCAR:    PAW_PBE Ni 02Aug2007
   VRHFIN =Ni:

   TITEL  = PAW_PBE Ni 02Aug2007
   POMASS =   58.690; ZVAL   =   10.000    mass and valenz
   ENMAX  =  269.532; ENMIN  =  202.149 eV

 POTCAR:    PAW_PBE H 15Jun2001
   VRHFIN =H: ultrasoft test

   TITEL  = PAW_PBE H 15Jun2001
   POMASS =    1.000; ZVAL   =    1.000    mass and valenz
   ENMAX  =  250.000; ENMIN  =  200.000 eV

 Optimization of the real space projectors (new method)

 maximal supplied QI-value         = 14.36
 optimisation between [QCUT,QGAM] = [ 11.92, 23.98] = [ 39.79,161.09] Ry
 Optimized for a Real-space Cutoff    1.49 Angstroem

   l    n(q)    QCUT    max X(q) W(low)/X(q) W(high)/X(q)  e(spline)
   2     10    11.920    66.195    0.79E-04    0.18E-03    0.24E-06
   2     10    11.920    64.643    0.81E-04    0.19E-03    0.24E-06
   0     11    11.920    95.520    0.28E-04    0.54E-04    0.18E-06
   0     11    11.920    63.403    0.27E-04    0.52E-04    0.17E-06
   1     10    11.920    19.961    0.18E-04    0.11E-03    0.23E-06
   1     10    11.920    13.289    0.25E-04    0.87E-04    0.19E-06
 Optimization of the real space projectors (new method)

[...]

   l    n(q)    QCUT    max X(q) W(low)/X(q) W(high)/X(q)  e(spline)
   2      9    11.864    60.317    0.21E-03    0.51E-03    0.25E-06
   2      9    11.864    55.921    0.21E-03    0.51E-03    0.26E-06
   0      9    11.864    51.690    0.22E-03    0.30E-04    0.17E-06
   0      9    11.864    30.015    0.20E-03    0.28E-04    0.15E-06
   1      9    11.864    18.849    0.76E-04    0.33E-03    0.17E-06
   1      9    11.864    14.624    0.60E-04    0.28E-03    0.15E-06
 Optimization of the real space projectors (new method)

 maximal supplied QI-value         = 34.20
 optimisation between [QCUT,QGAM] = [ 11.97, 23.94] = [ 40.13,160.53] Ry
 Optimized for a Real-space Cutoff    1.18 Angstroem

   l    n(q)    QCUT    max X(q) W(low)/X(q) W(high)/X(q)  e(spline)
   0      8    11.971    19.460    0.15E-03    0.31E-03    0.25E-06
   0      8    11.971    12.209    0.13E-03    0.29E-03    0.25E-06
   1      8    11.971     4.655    0.22E-03    0.24E-03    0.21E-06
  PAW_PBE Pt 04Feb2005                  :
  PAW_PBE Fe 06Sep2000                  :
  PAW_PBE Co 02Aug2007                  :
  PAW_PBE Cu 22Jun2005                  :
  PAW_PBE Ni 02Aug2007                  :
  PAW_PBE H 15Jun2001                   :

 POSCAR: 10.56
  positions in direct lattice
  velocities in cartesian coordinates
 exchange correlation table for  LEXCH =        8
   RHO(1)=    0.500       N(1)  =     2000
   RHO(2)=  100.500       N(2)  =     4000

 ion  position               nearest neighbor table
   1  0.787  0.879  0.318-  49 2.63  28 2.63  19 2.63  59 2.66  33 2.66  61 2.66  29 2.67  60 2.69
                             2 2.72  11 2.76   4 2.81  12 2.85
   2  0.043  0.882  0.316-  79 2.54  77 2.60  60 2.63  30 2.64  28 2.65  52 2.66  33 2.68  22 2.69
                             1 2.72   6 2.75   4 2.83  16 2.89
   3  0.280  0.380  0.320-  39 2.56  64 2.58  33 2.59  31 2.64  19 2.70  43 2.70  30 2.72  68 2.72
                             5 2.78  13 2.80  18 2.81  25 2.85
   4  0.875  0.961  0.424-  17 2.63   9 2.64  16 2.64   6 2.65  11 2.65  12 2.65  60 2.81   1 2.81
                             2 2.83
   5  0.123  0.461  0.428-  12 2.62   7 2.63  10 2.64  16 2.64  25 2.66  13 2.66  39 2.72  33 2.74
                             3 2.78
   6  0.126  0.961  0.422-   8 2.63  10 2.64  14 2.64   9 2.64   4 2.65  16 2.65   2 2.75  52 2.77
                            22 2.86
   7  0.875  0.459  0.427-  15 2.62   5 2.63   9 2.63  10 2.64  12 2.65  27 2.65  39 2.68  75 2.76
                            29 2.80
   8  0.376  0.959  0.420-  43 2.60  14 2.62  27 2.62   6 2.63  13 2.63  11 2.64  10 2.64  52 2.69
                            61 2.72
   9  0.875  0.211  0.421-   7 2.63  15 2.63  17 2.63   4 2.64   6 2.64  10 2.65  75 2.69  60 2.72
                            22 2.81
  10  0.126  0.210  0.423-  13 2.62   6 2.64   5 2.64   7 2.64   8 2.64   9 2.65  39 2.66  43 2.71
                            22 2.79
  11  0.625  0.960  0.424-  13 2.63   8 2.64  17 2.64  12 2.64  27 2.64   4 2.65   1 2.76  19 2.83
                            61 2.83
  12  0.875  0.710  0.426-   5 2.62  16 2.64  11 2.64   7 2.65  27 2.65   4 2.65  33 2.68  29 2.82
                             1 2.85
  13  0.375  0.208  0.425-  10 2.62  11 2.63   8 2.63  17 2.66  25 2.66   5 2.66  43 2.76   3 2.80
                            19 2.83
  14  0.377  0.711  0.424-  27 2.61   8 2.62   6 2.64  15 2.64  25 2.65  16 2.66  44 2.69  30 2.77
                            52 2.78
  15  0.626  0.460  0.423-   7 2.62  27 2.63   9 2.63  14 2.64  17 2.65  25 2.65  44 2.69  75 2.72
                            18 2.76
  16  0.125  0.710  0.426-  25 2.64  12 2.64   5 2.64   4 2.64   6 2.65  14 2.66  33 2.68  30 2.82
                             2 2.89
  17  0.626  0.210  0.422-   4 2.63   9 2.63  11 2.64  15 2.65  25 2.65  13 2.66  18 2.76  60 2.77
                            19 2.86
  18  0.548  0.376  0.318-  67 2.57  60 2.59  75 2.61  44 2.64  68 2.66  26 2.67  30 2.70  19 2.73
                            15 2.76  17 2.76   3 2.81  25 2.88
  19  0.535  0.124  0.315-  80 2.55  43 2.57  68 2.57  59 2.60   1 2.63  61 2.64   3 2.70  18 2.73
                            60 2.76  11 2.83  13 2.83  17 2.86
  20  0.547  0.124  0.040-  37 2.55  57 2.56  48 2.58  62 2.64  63 2.68  47 2.68  45 2.68  56 2.70
                            34 2.71
  21  0.121  0.460  0.128-  40 2.52  36 2.53  47 2.53  42 2.60  69 2.61  64 2.62  70 2.64  50 2.64
                            58 2.67  31 2.70  57 2.71  74 2.72
  22  0.043  0.137  0.314-  65 2.51  55 2.53  77 2.57  43 2.58  39 2.58  75 2.60  60 2.67   2 2.69
                            52 2.73  10 2.79   9 2.81   6 2.86  31 3.39
  23  0.042  0.130  0.033-  70 2.58  40 2.60  41 2.61  45 2.62  62 2.64  76 2.64  24 2.69  35 2.73
                            53 2.78
  24  0.130  0.958  0.132-  79 2.51  77 2.54  35 2.57  53 2.57  55 2.58  70 2.62  38 2.64  58 2.64
                            73 2.65  23 2.69  66 2.70  41 2.72
  25  0.375  0.460  0.427-  16 2.64  17 2.65  14 2.65  15 2.65   5 2.66  13 2.66   3 2.85  30 2.85
                            18 2.88
  26  0.455  0.546  0.219-  73 2.50  74 2.54  51 2.56  79 2.61  64 2.63  30 2.65  68 2.67  18 2.67
                            78 2.67  32 2.68  67 2.72  44 2.76
  27  0.624  0.710  0.424-  14 2.61   8 2.62  15 2.63  11 2.64  12 2.65   7 2.65  44 2.69  61 2.78
                            29 2.79
  28  0.956  0.790  0.221-  58 2.57  66 2.57  50 2.58  42 2.59  49 2.61   1 2.63  64 2.63   2 2.65
                            59 2.70  33 2.73  79 2.76  77 2.77
  29  0.795  0.622  0.319-  39 2.54  42 2.55  75 2.57  32 2.62  44 2.64  33 2.65   1 2.67  61 2.68
                            49 2.69  27 2.79   7 2.80  12 2.82
  30  0.292  0.631  0.318-  79 2.57  64 2.61  52 2.62  44 2.63   2 2.64  26 2.65  33 2.66  18 2.70
                             3 2.72  14 2.77  16 2.82  25 2.85
  31  0.203  0.281  0.225-  70 2.52  55 2.56  65 2.57  43 2.60  57 2.60   3 2.64  39 2.68  80 2.70
                            21 2.70  42 2.71  68 2.75  64 2.79  22 3.39
  32  0.706  0.549  0.221-  54 2.53  69 2.56  51 2.58  49 2.59  42 2.60  29 2.62  78 2.62  65 2.63
                            26 2.68  75 2.70  67 2.70  44 2.70
  33  0.041  0.630  0.326-   3 2.59  39 2.64  29 2.65  30 2.66   1 2.66  16 2.68   2 2.68  12 2.68
                            64 2.70  28 2.73  42 2.74   5 2.74
  34  0.797  0.862  0.042-  50 2.38  66 2.51  48 2.53  36 2.55  71 2.56  63 2.61  20 2.71  35 2.76
                            62 2.76
  35  0.056  0.866  0.038-  58 2.54  72 2.55  36 2.56  24 2.57  66 2.62  53 2.65  23 2.73  62 2.73
                            34 2.76
  36  0.046  0.628  0.037-  21 2.53  34 2.55  35 2.56  58 2.58  50 2.61  47 2.63  72 2.64  40 2.69
                            71 2.72
  37  0.627  0.222  0.129-  51 2.51  74 2.51  67 2.52  56 2.53  41 2.55  20 2.55  68 2.56  59 2.56
                            62 2.59  66 2.66  57 2.73  48 2.89
  38  0.382  0.955  0.130-  53 2.47  80 2.48  45 2.49  78 2.53  48 2.54  73 2.55  63 2.55  54 2.56
                            55 2.59  57 2.62  24 2.64  70 2.67
  39  0.036  0.383  0.325-  29 2.54   3 2.56  22 2.58  75 2.59  33 2.64  10 2.66   7 2.68  42 2.68
                            31 2.68   5 2.72  65 2.77  43 2.78
  40  0.031  0.382  0.038-  69 2.44  21 2.52  71 2.53  76 2.56  70 2.57  23 2.60  36 2.69  45 2.78
                            47 2.78
  41  0.872  0.215  0.128-  76 2.45  65 2.52  77 2.53  67 2.54  37 2.55  69 2.57  62 2.57  51 2.59
                            23 2.61  70 2.65  66 2.66  24 2.72
  42  0.955  0.545  0.224-  29 2.55  50 2.56  28 2.59  21 2.60  32 2.60  69 2.61  49 2.63  65 2.64
                            64 2.65  39 2.68  31 2.71  33 2.74
  43  0.296  0.116  0.322-  52 2.53  55 2.54  61 2.57  19 2.57  22 2.58  31 2.60   8 2.60  80 2.67
                             3 2.70  10 2.71  13 2.76  39 2.78
  44  0.541  0.629  0.323-  61 2.56  52 2.59  30 2.63  18 2.64  29 2.64  75 2.65  78 2.65  27 2.69
                            14 2.69  15 2.69  32 2.70  26 2.76
  45  0.295  0.119  0.039-  70 2.49  38 2.49  57 2.57  53 2.60  23 2.62  63 2.64  20 2.68  47 2.75
                            40 2.78
  46  0.548  0.625  0.044-  51 2.38  73 2.39  54 2.41  71 2.56  53 2.56  63 2.58  76 2.59  56 2.62
                            72 2.64
  47  0.296  0.379  0.039-  74 2.41  21 2.53  57 2.61  72 2.61  56 2.62  36 2.63  20 2.68  45 2.75
                            40 2.78
  48  0.625  0.950  0.132-  49 2.40  80 2.48  54 2.48  34 2.53  38 2.54  59 2.55  50 2.56  63 2.57
                            20 2.58  57 2.65  66 2.68  37 2.89
  49  0.706  0.794  0.220-  48 2.40  50 2.48  54 2.49  80 2.53  32 2.59  28 2.61  78 2.61   1 2.63
                            61 2.63  42 2.63  29 2.69  59 2.69
  50  0.866  0.706  0.129-  34 2.38  71 2.42  54 2.48  49 2.48  42 2.56  48 2.56  69 2.58  28 2.58
                            36 2.61  21 2.64  66 2.76  58 2.85
[...]

 FORCES acting on ions
    electron-ion (+dipol)            ewald-force                    non-local-force                 convergence-correction
   -.351E+02 0.807E+02 -.151E+04   0.347E+02 -.809E+02 0.150E+04   0.384E+00 0.220E+00 0.216E+01   -.241E-03 0.376E-03 -.157E-04
   0.232E+02 0.652E+02 -.149E+04   -.226E+02 -.654E+02 0.149E+04   -.515E+00 0.226E+00 0.243E+01   0.654E-03 0.574E-03 0.448E-04
   0.360E+02 -.132E+02 -.154E+04   -.376E+02 0.134E+02 0.154E+04   0.166E+01 -.139E+00 0.204E+01   0.557E-03 0.555E-03 -.122E-03
   0.168E+01 0.257E+02 -.293E+04   -.159E+01 -.255E+02 0.293E+04   -.895E-01 -.117E+00 0.713E+00   0.435E-03 -.290E-03 -.278E-03
   -.132E+02 0.151E+00 -.292E+04   0.128E+02 0.169E+00 0.292E+04   0.459E+00 -.300E+00 0.148E+01   0.305E-04 -.312E-05 0.809E-03
   0.454E+01 0.102E+02 -.289E+04   -.455E+01 -.105E+02 0.289E+04   0.307E-01 0.296E+00 0.104E+01   -.224E-03 -.337E-03 -.121E-03
   -.166E+02 -.119E+02 -.295E+04   0.167E+02 0.115E+02 0.295E+04   -.136E+00 0.332E+00 0.135E+01   0.398E-03 -.458E-03 0.118E-02
   0.386E+01 -.134E+02 -.292E+04   -.413E+01 0.136E+02 0.291E+04   0.297E+00 -.145E+00 0.182E+01   -.456E-03 -.506E-03 -.514E-03
   -.129E+02 0.944E+01 -.293E+04   0.128E+02 -.921E+01 0.293E+04   0.123E+00 -.238E+00 0.101E+01   -.142E-03 -.310E-03 0.347E-03
   -.142E+02 -.711E+01 -.289E+04   0.146E+02 0.741E+01 0.289E+04   -.329E+00 -.270E+00 0.165E+01   -.328E-03 -.215E-03 0.270E-03
   -.858E+01 -.338E+01 -.294E+04   0.879E+01 0.321E+01 0.294E+04   -.256E+00 0.121E+00 0.681E+00   0.116E-03 -.465E-03 0.433E-03
   -.857E+01 -.904E+00 -.292E+04   0.888E+01 0.565E+00 0.292E+04   -.297E+00 0.340E+00 0.106E+01   0.446E-03 -.116E-03 0.142E-03
   -.456E+01 -.191E+02 -.292E+04   0.427E+01 0.189E+02 0.292E+04   0.305E+00 0.224E+00 0.780E+00   -.185E-03 0.261E-03 0.139E-02
   0.203E+02 0.132E+02 -.292E+04   -.199E+02 -.131E+02 0.292E+04   -.431E+00 -.796E-01 0.132E+01   -.655E-03 0.615E-03 0.169E-03
   0.224E+02 -.127E+02 -.293E+04   -.222E+02 0.129E+02 0.293E+04   -.278E+00 -.228E+00 0.120E+01   -.554E-03 -.471E-03 0.960E-03
   0.119E+01 0.442E+01 -.291E+04   -.148E+01 -.480E+01 0.291E+04   0.271E+00 0.362E+00 0.103E+01   0.197E-03 0.678E-03 -.160E-04
   0.308E+02 -.710E+01 -.293E+04   -.306E+02 0.728E+01 0.293E+04   -.175E+00 -.200E+00 0.936E+00   0.360E-04 0.361E-03 0.359E-04
   0.691E+02 -.709E+02 -.153E+04   -.678E+02 0.711E+02 0.153E+04   -.121E+01 -.231E+00 0.176E+01   0.838E-03 0.546E-03 -.824E-05
   0.302E+02 -.431E+02 -.152E+04   -.313E+02 0.427E+02 0.152E+04   0.108E+01 0.437E+00 0.242E+01   0.640E-03 0.668E-04 -.720E-03
   0.334E+02 0.317E+02 0.304E+04   -.335E+02 -.318E+02 -.303E+04   0.138E+00 0.140E+00 -.235E+01   -.401E-04 0.717E-03 -.741E-03
   0.356E+02 -.829E+01 0.160E+04   -.364E+02 0.900E+01 -.160E+04   0.937E+00 -.623E+00 0.918E+00   0.344E-03 0.714E-03 -.381E-03
   -.691E+02 0.927E+01 -.148E+04   0.700E+02 -.857E+01 0.148E+04   -.891E+00 -.680E+00 0.262E+01   -.305E-03 -.627E-03 -.980E-03
   -.542E+02 0.511E+02 0.309E+04   0.548E+02 -.503E+02 -.308E+04   -.707E+00 -.883E+00 -.209E+01   -.230E-03 -.187E-03 -.183E-03
   -.340E+00 -.528E+02 0.159E+04   0.623E+00 0.523E+02 -.159E+04   -.340E+00 0.416E+00 -.749E+00   -.110E-03 -.589E-04 -.101E-05
   0.838E+01 0.210E+01 -.292E+04   -.856E+01 -.208E+01 0.292E+04   0.176E+00 -.350E-01 0.649E+00   0.333E-04 0.178E-03 -.142E-03
   -.243E+02 -.874E+01 0.951E+01   0.242E+02 0.902E+01 -.108E+02   0.178E-01 -.332E+00 0.127E+01   0.131E-03 -.325E-03 -.118E-02
   -.137E+02 0.796E+01 -.293E+04   0.132E+02 -.812E+01 0.293E+04   0.508E+00 0.192E+00 0.125E+01   0.168E-03 0.249E-03 0.579E-03
   0.198E+02 0.656E+02 0.639E+01   -.207E+02 -.668E+02 -.679E+01   0.109E+01 0.111E+01 0.309E+00   0.484E-03 -.228E-03 -.103E-02
   -.646E+02 0.629E+01 -.149E+04   0.650E+02 -.755E+01 0.148E+04   -.357E+00 0.134E+01 0.282E+01   -.346E-03 -.426E-03 -.281E-03
   0.255E+02 0.279E+02 -.154E+04   -.253E+02 -.272E+02 0.154E+04   -.257E+00 -.682E+00 0.226E+01   0.474E-03 0.275E-03 -.279E-03
   0.205E+02 -.641E+02 -.762E+02   -.215E+02 0.635E+02 0.765E+02   0.102E+01 0.514E+00 -.205E+00   -.316E-03 -.175E-03 -.103E-02
   -.222E+02 -.226E+02 0.561E+01   0.230E+02 0.233E+02 -.634E+01   -.825E+00 -.738E+00 0.732E+00   -.377E-03 -.691E-03 -.102E-02
   0.190E+02 0.150E+02 -.125E+04   -.191E+02 -.154E+02 0.125E+04   0.163E+00 0.454E+00 0.325E+00   0.153E-03 0.201E-03 -.370E-03
   -.598E+02 -.261E+01 0.244E+04   0.601E+02 0.138E+01 -.244E+04   -.392E+00 0.126E+01 -.274E+01   0.506E-03 -.667E-03 -.352E-03
   0.306E+02 -.140E+02 0.247E+04   -.304E+02 0.126E+02 -.247E+04   -.803E-01 0.146E+01 -.236E+01   0.360E-03 -.548E-03 -.776E-04
   0.229E+02 -.398E+01 0.247E+04   -.231E+02 0.455E+01 -.247E+04   0.110E+00 -.595E+00 -.288E+01   0.474E-03 -.169E-05 0.927E-04
   0.686E+01 0.518E+02 0.129E+04   -.603E+01 -.511E+02 -.129E+04   -.903E+00 -.698E+00 -.148E+00   0.493E-03 0.124E-02 -.331E-03
   0.335E+02 -.542E+02 0.128E+04   -.334E+02 0.539E+02 -.128E+04   -.127E+00 0.203E+00 -.455E+00   -.728E-03 0.321E-04 -.937E-04
   -.548E+02 -.258E+02 -.124E+04   0.550E+02 0.260E+02 0.124E+04   -.131E+00 -.210E+00 0.642E+00   -.372E-03 -.215E-04 -.421E-03
   -.934E+02 0.204E+02 0.248E+04   0.930E+02 -.202E+02 -.248E+04   0.293E+00 -.191E+00 -.269E+01   -.843E-04 0.307E-03 -.196E-03
   -.335E+02 0.459E+02 0.130E+04   0.327E+02 -.455E+02 -.130E+04   0.837E+00 -.528E+00 -.473E+00   -.148E-03 0.392E-03 -.164E-03
   -.433E+02 0.330E+01 -.437E+02   0.431E+02 -.292E+01 0.436E+02   0.193E+00 -.444E+00 0.394E-02   0.519E-04 -.862E-04 -.916E-03
   0.114E+02 -.796E+02 -.124E+04   -.115E+02 0.794E+02 0.124E+04   0.172E+00 0.223E+00 0.104E+01   -.676E-03 -.801E-03 -.644E-03
   0.135E+02 0.269E+02 -.123E+04   -.136E+02 -.269E+02 0.123E+04   0.527E-01 -.410E-01 0.287E+00   -.352E-03 0.240E-03 -.646E-03
   0.146E+02 -.465E+02 0.245E+04   -.152E+02 0.458E+02 -.245E+04   0.658E+00 0.690E+00 -.274E+01   -.208E-03 -.120E-03 -.297E-03
   0.437E+01 -.197E+02 0.275E+04   -.443E+01 0.198E+02 -.275E+04   0.759E-01 -.197E+00 -.235E+01   -.418E-03 -.754E-03 -.110E-03
   0.119E+03 0.291E+02 0.279E+04   -.120E+03 -.284E+02 -.279E+04   0.422E+00 -.668E+00 -.238E+01   0.413E-03 0.850E-03 0.760E-04
   -.362E+02 -.275E+02 0.142E+04   0.357E+02 0.264E+02 -.142E+04   0.454E+00 0.112E+01 -.432E+00   -.119E-03 -.211E-03 -.245E-03
   -.590E+02 0.675E+02 0.238E+02   0.590E+02 -.674E+02 -.247E+02   0.121E-01 -.211E+00 0.916E+00   0.291E-04 -.511E-03 -.255E-03
   -.883E+02 0.191E+02 0.141E+04   0.879E+02 -.187E+02 -.141E+04   0.515E+00 -.502E+00 -.156E+00   0.626E-03 -.902E-03 -.423E-03
   -.209E+02 0.939E+01 0.139E+04   0.211E+02 -.960E+01 -.139E+04   -.141E+00 0.271E+00 -.137E+00   -.209E-03 0.291E-03 -.997E-03
   0.442E+02 0.107E+02 -.139E+04   -.440E+02 -.109E+02 0.139E+04   -.315E+00 0.192E+00 0.144E+01   -.229E-03 0.125E-03 -.499E-03
   0.528E+02 -.806E+02 0.276E+04   -.525E+02 0.804E+02 -.276E+04   -.332E+00 0.212E+00 -.245E+01   -.165E-03 -.786E-03 -.435E-03
   -.136E+02 0.200E+01 0.138E+04   0.138E+02 -.177E+01 -.138E+04   -.118E+00 -.269E+00 -.475E+00   -.599E-03 -.130E-02 -.100E-02
   0.160E+02 -.674E+02 -.142E+02   -.153E+02 0.669E+02 0.144E+02   -.762E+00 0.612E+00 -.323E+00   -.488E-03 -.357E-03 -.260E-03
   0.308E+02 0.339E+02 0.344E+04   -.309E+02 -.331E+02 -.344E+04   0.901E-01 -.846E+00 -.358E+01   0.591E-03 0.156E-02 0.421E-03
   0.631E+02 0.861E+01 0.174E+04   -.633E+02 -.929E+01 -.174E+04   0.146E+00 0.701E+00 -.217E+00   -.301E-03 0.881E-03 -.211E-03
   0.102E+03 -.314E+02 0.172E+04   -.102E+03 0.314E+02 -.172E+04   -.184E+00 0.144E-01 0.444E-01   0.969E-04 -.475E-03 -.103E-02
   0.138E+02 0.705E+02 0.860E+02   -.145E+02 -.703E+02 -.869E+02   0.606E+00 -.229E+00 0.826E+00   0.730E-03 0.431E-03 0.485E-04
   0.146E+02 0.524E+02 -.170E+04   -.142E+02 -.519E+02 0.170E+04   -.436E+00 -.487E+00 0.139E+01   0.116E-02 0.287E-03 -.634E-03
[...]
   -.733E+02 0.103E+01 0.155E+04   0.729E+02 -.923E+00 -.155E+04   0.399E+00 -.391E-01 -.156E+00   -.664E-03 0.293E-03 -.388E-03
   -.126E+02 0.194E+02 0.162E+04   0.130E+02 -.196E+02 -.162E+04   -.405E+00 0.211E+00 -.522E+00   -.194E-03 -.265E-03 0.471E-04
   -.101E+03 -.426E+01 0.308E+04   0.101E+03 0.436E+01 -.308E+04   -.488E+00 -.553E-01 -.137E+01   -.595E-03 -.376E-03 -.876E-04
   0.701E+02 -.524E+02 0.308E+04   -.704E+02 0.530E+02 -.308E+04   0.366E+00 -.599E+00 -.825E+00   0.395E-03 -.226E-03 -.931E-04
   0.145E+02 -.403E+02 0.155E+04   -.141E+02 0.401E+02 -.155E+04   -.422E+00 0.227E+00 -.250E-01   -.589E-04 -.105E-02 -.131E-02
   0.510E+02 0.211E+01 0.159E+04   -.506E+02 -.214E+01 -.159E+04   -.503E+00 0.691E-01 -.102E+00   0.530E-03 0.701E-03 -.809E-03
   -.369E+02 -.711E+02 -.155E+04   0.368E+02 0.713E+02 0.155E+04   0.140E+00 -.950E-01 0.742E+00   -.162E-03 -.355E-03 -.906E-03
   -.540E+02 0.295E+02 0.307E+04   0.544E+02 -.289E+02 -.307E+04   -.399E+00 -.596E+00 -.193E+01   -.968E-03 0.802E-03 0.192E-03
   -.450E+02 0.728E+02 0.775E+02   0.454E+02 -.725E+02 -.777E+02   -.382E+00 -.358E+00 0.179E+00   0.633E-03 0.883E-04 -.379E-03
   -.689E+00 0.625E+02 -.199E+01   0.640E+00 -.618E+02 0.183E+01   0.771E-01 -.837E+00 0.687E-01   -.779E-03 0.470E-03 0.177E-04
   0.446E+02 0.576E+01 -.296E+02   -.442E+02 -.512E+01 0.294E+02   -.393E+00 -.654E+00 0.144E+00   0.282E-03 0.622E-03 -.305E-03
   0.257E+02 -.487E+02 0.351E+02   -.261E+02 0.483E+02 -.354E+02   0.320E+00 0.467E+00 0.237E+00   -.935E-03 0.148E-03 -.125E-03
   0.175E+02 -.100E+02 -.242E+03   -.219E+02 0.125E+02 0.242E+03   0.434E+01 -.252E+01 -.409E+00   -.190E-04 0.801E-05 0.301E-04
   -.176E+02 0.104E+02 -.242E+03   0.219E+02 -.129E+02 0.242E+03   -.434E+01 0.252E+01 0.423E+00   -.913E-05 -.196E-06 0.317E-04
   -.220E+01 -.888E+00 -.818E+01   0.231E-12 -.183E-12 0.199E-12   0.221E+01 0.886E+00 0.818E+01   -.531E-04 0.352E-03 -.223E-01

 POSITION                                       TOTAL-FORCE (eV/Angst)
     12.95432      8.03462      6.98949        -0.001846     -0.001621      0.001756
      5.11180      8.06774      6.95054        -0.001679      0.001234      0.002228
      4.96311      3.47496      7.03815        -0.002050      0.000510     -0.000668
     14.31738      8.78690      9.32779         0.003700     -0.001460      0.001518
      3.73513      4.21649      9.42362        -0.003120     -0.001113     -0.001002
      6.40201      8.78422      9.27359        -0.001029     -0.002235     -0.000943
     11.66679      4.20021      9.39285         0.004833     -0.002508     -0.002606
      9.03027      8.77080      9.25067         0.001345     -0.000702      0.000467
     10.35330      1.92497      9.26212        -0.002366      0.000942     -0.001265
      2.44264      1.92087      9.30031         0.001815      0.003818      0.000343
     11.67080      8.78030      9.31790        -0.000645     -0.003951      0.000425
     12.98973      6.49096      9.38226         0.000583      0.000355      0.001619
      5.06322      1.90742      9.34992        -0.001325      0.001015      0.000296
      7.72957      6.50183      9.32732        -0.001332      0.002127     -0.000906
      9.04571      4.20986      9.30542        -0.005785     -0.002266     -0.004785
      5.07256      6.49527      9.38139         0.000008      0.004883      0.002222
      7.71939      1.91860      9.28843        -0.000019      0.005181      0.000631
      7.77153      3.43719      6.98363         0.001189      0.001731      0.003859
      6.30461      1.13589      6.92746         0.000844     -0.002007     -0.004051
      6.42858      1.12974      0.87872        -0.015575      0.007766     -0.000944
      3.70548      4.20844      2.81687         0.034506      0.038465     -0.011981
      1.17608      1.25129      6.91154        -0.005000     -0.000059     -0.004300
      1.13569      1.19080      0.72557        -0.019813      0.014157     -0.022196
      6.43607      8.76100      2.90031        -0.009117     -0.027542      0.027453
      6.39338      4.21080      9.38668         0.004155     -0.003037     -0.000635
      7.68135      4.99073      4.81474         0.036135      0.000659     -0.037387
     10.33707      6.49663      9.32617         0.004976      0.005383     -0.001561
     14.26424      7.22593      4.86299         0.047999     -0.033117     -0.031253
     11.68044      5.68686      7.02132        -0.001899     -0.001081     -0.000752
      6.41234      5.77062      7.00401         0.000927     -0.002473     -0.002226
      3.62119      2.56589      4.96023        -0.004282     -0.034502      0.033578
     10.36091      5.02430      4.85652         0.007596     -0.015534     -0.007110
      3.76224      5.76365      7.16906        -0.000703      0.000491      0.000559
     12.96907      7.87977      0.92567        -0.039164     -0.001282      0.001454
      5.16340      7.91719      0.83030         0.014785      0.010295      0.013819
      3.80701      5.74502      0.81381         0.018134     -0.000845     -0.024490
      7.79852      2.03245      2.83251        -0.047013     -0.010347      0.030657
      9.07755      8.73373      2.85743         0.009538     -0.016414     -0.011924
      2.40410      3.50138      7.15735        -0.000918      0.001274     -0.002128
      2.34409      3.49051      0.82510        -0.002834      0.007550     -0.000596
     10.34814      1.96983      2.82249        -0.001426     -0.019873      0.026636
     12.96035      4.98587      4.92559        -0.011000     -0.035731     -0.054727
      3.73944      1.06443      7.08010        -0.003963     -0.001913      0.000430
      9.03895      5.75137      7.09815         0.000406     -0.001249     -0.004575
      3.74824      1.09182      0.86700        -0.001658      0.018938      0.010361
      9.09121      5.71867      0.96043        -0.004038      0.013326      0.011920
      5.12448      3.47045      0.85563         0.029279      0.005197      0.003337
     11.62092      8.68758      2.90590         0.002688     -0.005312      0.044582
     11.65313      7.26450      4.84229        -0.007800      0.012138     -0.015904
     12.86756      6.45280      2.83379         0.023268      0.002164      0.008423
      9.04201      4.20780      2.79628         0.004174      0.028326     -0.022515
      7.77396      8.01059      6.99788         0.002040      0.000391     -0.000011
      7.81315      7.93922      0.88653        -0.005936      0.004764      0.025172
     10.39144      6.53566      2.82198         0.013067     -0.024248     -0.005652
      2.51347      0.25826      5.00083         0.015819      0.050947     -0.014648
      7.74264      3.48454      0.76157        -0.012096     -0.010616     -0.000055
      5.07835      1.87760      2.91701        -0.000560     -0.008573      0.001492
      5.16037      6.44715      2.89923        -0.015791     -0.003163     -0.013248
      7.70892      0.45986      4.84799         0.025301      0.001449     -0.004433
      9.05868      1.18710      6.98357         0.001907     -0.001689     -0.000575
[...]
      6.37169      2.66558      4.85827        -0.015627      0.012025     -0.002410
     11.65891      4.17486      2.81483        -0.010104      0.010073     -0.025083
      2.44098      1.89237      2.83279        -0.005145      0.034158      0.010540
     11.64953      5.68621      0.88546         0.000522      0.035947      0.007828
      6.44743      5.71949      0.92597        -0.002109      0.012565      0.028566
      7.82927      6.50651      2.83621        -0.030630      0.007397     -0.023064
      6.41922      4.13007      2.78290        -0.019902     -0.002453      0.000617
     10.37953      3.46986      7.05917        -0.000377      0.000425     -0.003395
     10.34410      3.45013      0.86804         0.010103     -0.005455     -0.008129
     10.37063      0.48410      4.87151        -0.025864     -0.007760      0.000176
      9.04079      7.29017      4.93700         0.005139     -0.041538      0.021957
      6.46265      7.29503      4.94074         0.053285      0.016104     -0.007958
      5.04247      0.27633      4.88406        -0.001874      0.008904      0.000657
      1.28785      0.80750     12.40184        -0.004090      0.000136      0.008433
      1.93583      0.43061     12.33938        -0.000048     -0.001190      0.003920
    total drift:                                0.006166     -0.002136     -0.019439

  FREE ENERGIE OF THE ION-ELECTRON SYSTEM (eV)
  free  energy   TOTEN  =      -514.66396463 eV

  energy  without entropy=     -514.67702963  energy(sigma->0) =     -514.66831963

 d Force = 0.2058310E-05[ 0.219E-06, 0.390E-05]  d Energy = 0.2526692E-05-0.468E-06
 d Force =-0.2014385E+01[-0.201E+01,-0.201E+01]  d Ewald  =-0.2014385E+01 0.175E-09

 reached required accuracy - stopping structural energy minimisation