 vasp.5.4.4.18Apr17-6-g9f103f2a35 (build Nov 30 2020 22:55:02) complex

 executed on             LinuxIFC date 2023.09.08  21:37:34

 INCAR:
 POTCAR:    PAW_PBE Pt 04Feb2005
 POTCAR:    PAW_PBE H 15Jun2001
 POTCAR:    PAW_PBE Pt 04Feb2005
   VRHFIN =Pt: s1d9

   TITEL  = PAW_PBE Pt 04Feb2005
   POMASS =  195.080; ZVAL   =   10.000    mass and valenz
   ENMAX  =  230.283; ENMIN  =  172.712 eV

 POTCAR:    PAW_PBE H 15Jun2001
   VRHFIN =H: ultrasoft test

   TITEL  = PAW_PBE H 15Jun2001
   POMASS =    1.000; ZVAL   =    1.000    mass and valenz
   ENMAX  =  250.000; ENMIN  =  200.000 eV

 Optimization of the real space projectors (new method)

 maximal supplied QI-value         = 14.36
 optimisation between [QCUT,QGAM] = [ 11.92, 23.98] = [ 39.79,161.09] Ry
 Optimized for a Real-space Cutoff    1.49 Angstroem

   l    n(q)    QCUT    max X(q) W(low)/X(q) W(high)/X(q)  e(spline)
   2     10    11.920    66.195    0.79E-04    0.18E-03    0.24E-06
   2     10    11.920    64.643    0.81E-04    0.19E-03    0.24E-06
   0     11    11.920    95.520    0.28E-04    0.54E-04    0.18E-06
   0     11    11.920    63.403    0.27E-04    0.52E-04    0.17E-06
   1     10    11.920    19.961    0.18E-04    0.11E-03    0.23E-06
   1     10    11.920    13.289    0.25E-04    0.87E-04    0.19E-06
 Optimization of the real space projectors (new method)

 maximal supplied QI-value         = 34.20
 optimisation between [QCUT,QGAM] = [ 11.97, 23.94] = [ 40.13,160.53] Ry
 Optimized for a Real-space Cutoff    1.18 Angstroem

   l    n(q)    QCUT    max X(q) W(low)/X(q) W(high)/X(q)  e(spline)
   0      8    11.971    19.460    0.15E-03    0.31E-03    0.25E-06
   0      8    11.971    12.209    0.13E-03    0.29E-03    0.25E-06
   1      8    11.971     4.655    0.22E-03    0.24E-03    0.21E-06
  PAW_PBE Pt 04Feb2005                  :
  PAW_PBE H 15Jun2001                   :

 POSCAR: Pt111
  positions in direct lattice
  velocities in cartesian coordinates
 exchange correlation table for  LEXCH =        8
   RHO(1)=    0.500       N(1)  =     2000
   RHO(2)=  100.500       N(2)  =     4000

 ion  position               nearest neighbor table
   1  0.784  0.870  0.335-  73 2.67   2 2.67   3 2.67  56 2.67  43 2.67  72 2.67  71 2.83  20 2.84
                            55 2.84  35 2.86  27 2.86  34 2.87
   2  0.034  0.871  0.334-  23 2.66  47 2.66  72 2.67   1 2.67   3 2.67  57 2.67  65 2.81  68 2.82
                            55 2.82  39 2.84  29 2.87  27 2.89
   3  0.034  0.620  0.334-  15 2.66   9 2.67  56 2.67   1 2.67   2 2.67  57 2.67  12 2.82  55 2.82
                            76 2.82  39 2.84  28 2.87  35 2.88
   4  0.787  0.868  0.009-  44 2.66  75 2.66  74 2.66   5 2.67  58 2.67   6 2.67  78 2.86  21 2.86
                            19 2.87
   5  0.037  0.868  0.009-  59 2.66  24 2.66   6 2.66   4 2.67  48 2.67  74 2.67  49 2.86  70 2.86
                            78 2.86
   6  0.037  0.618  0.010-  10 2.66  59 2.66   5 2.66  58 2.66  18 2.67   4 2.67  70 2.86  46 2.86
                            21 2.86
   7  0.620  0.202  0.119-  11 2.66  61 2.66  22 2.66  78 2.66  53 2.67  19 2.67  71 2.82  79 2.82
                            80 2.84  42 2.86  44 2.86  74 2.87
   8  0.370  0.952  0.119-  60 2.66  19 2.66  53 2.66  25 2.67  54 2.67  49 2.67  69 2.82  66 2.82
                            26 2.83  16 2.86  24 2.86  75 2.87
   9  0.034  0.370  0.335-  47 2.66  13 2.66   3 2.67  56 2.67  15 2.68  63 2.68  12 2.82  62 2.83
                            77 2.83  33 2.84  30 2.86  28 2.87
  10  0.037  0.368  0.010-  16 2.66  18 2.66   6 2.66  48 2.67  58 2.67  64 2.67  54 2.86  46 2.86
                            45 2.86
  11  0.870  0.202  0.119-   7 2.66  78 2.66  22 2.66  49 2.67  54 2.67  45 2.67  65 2.82  77 2.82
                            79 2.83  64 2.86  74 2.86  48 2.87
  12  0.952  0.536  0.227-  62 2.66  77 2.66  55 2.67  20 2.67  67 2.67  76 2.67   3 2.82   9 2.82
                            56 2.82  45 2.82  21 2.82  46 2.83
  13  0.283  0.121  0.334-   9 2.66  47 2.66  43 2.66  73 2.66  15 2.68  23 2.68  62 2.81  26 2.83
                            69 2.83  33 2.85  31 2.85  36 2.87
  14  0.533  0.620  0.337-  41 2.65  57 2.65  63 2.65  23 2.66  56 2.67  73 2.67  52 2.80  51 2.81
                            66 2.86  67 2.87  38 2.93  37 2.94
  15  0.284  0.371  0.336-  57 2.65  41 2.65   3 2.66  43 2.66  13 2.68   9 2.68  76 2.83  36 2.84
                            80 2.85  62 2.85  28 2.85  50 2.94
  16  0.287  0.118  0.010-  10 2.66  48 2.66  18 2.66  24 2.66  75 2.67  44 2.67   8 2.86  53 2.86
                            54 2.87
  17  0.537  0.618  0.009-  58 2.66  75 2.66  64 2.66  42 2.67  24 2.67  59 2.67  22 2.86  25 2.86
                            60 2.87
  18  0.287  0.368  0.010-  10 2.66  16 2.66  42 2.67  44 2.67   6 2.67  59 2.67  53 2.86  61 2.86
                            46 2.87
  19  0.620  0.952  0.119-  53 2.66   8 2.66  25 2.66  21 2.67   7 2.67  78 2.67  20 2.82  71 2.82
                            69 2.83  44 2.86  75 2.86   4 2.87
  20  0.702  0.786  0.226-  71 2.66  55 2.66  69 2.67  12 2.67  66 2.67  67 2.67  56 2.81  19 2.82
                            25 2.82  73 2.83  21 2.83   1 2.84
  21  0.870  0.702  0.119-  70 2.66  25 2.66  78 2.66  45 2.67  46 2.67  19 2.67  55 2.82  12 2.82
                            20 2.83  58 2.86   4 2.86   6 2.86
  22  0.620  0.452  0.119-  11 2.66  45 2.66   7 2.66  60 2.67  61 2.67  25 2.67  79 2.82  67 2.82
                            17 2.86  42 2.86  64 2.87  51 2.88
  23  0.284  0.869  0.335-  14 2.66  57 2.66   2 2.66  73 2.66  47 2.68  13 2.68  68 2.83  26 2.84
                            66 2.84  31 2.85  29 2.85  37 2.93
  24  0.287  0.868  0.009-   5 2.66  48 2.66  16 2.66  59 2.67  75 2.67  17 2.67  60 2.86   8 2.86
                            49 2.87
  25  0.620  0.702  0.119-  19 2.66  60 2.66  45 2.66  21 2.66   8 2.67  22 2.67  20 2.82  67 2.82
                            66 2.83  17 2.86  75 2.86  58 2.87
  26  0.202  0.036  0.227-  69 2.66  66 2.66  68 2.66  65 2.67  77 2.67  62 2.67  54 2.82  49 2.82
                            13 2.83   8 2.83  47 2.83  23 2.84
  27  0.866  0.955  0.445-  39 2.65  40 2.65  29 2.66  32 2.66  34 2.66  35 2.67   1 2.86  72 2.88
                             2 2.89
  28  0.116  0.455  0.444-  50 2.64  35 2.66  30 2.66  33 2.66  39 2.66  36 2.67  15 2.85   9 2.87
                             3 2.87
  29  0.116  0.955  0.444-  37 2.65  32 2.66  27 2.66  33 2.66  39 2.67  31 2.67  23 2.85  47 2.86
                             2 2.87
  30  0.866  0.455  0.444-  38 2.64  35 2.66  28 2.66  33 2.66  52 2.67  32 2.67  63 2.85   9 2.86
                            56 2.86
  31  0.366  0.955  0.444-  37 2.65  36 2.66  34 2.66  33 2.66  52 2.67  29 2.67  23 2.85  13 2.85
                            73 2.87
  32  0.866  0.204  0.444-  38 2.65  29 2.66  27 2.66  40 2.66  33 2.67  30 2.67  63 2.84  72 2.87
                            47 2.87
  33  0.116  0.205  0.443-  31 2.66  29 2.66  28 2.66  30 2.66  32 2.67  36 2.67   9 2.84  13 2.85
                            47 2.85
  34  0.616  0.955  0.445-  52 2.65  40 2.65  36 2.66  31 2.66  27 2.66  35 2.67   1 2.87  43 2.88
                            73 2.88
  35  0.866  0.704  0.445-  39 2.65  52 2.65  28 2.66  30 2.66  34 2.67  27 2.67   1 2.86   3 2.88
                            56 2.88
  36  0.367  0.204  0.444-  50 2.65  31 2.66  34 2.66  40 2.66  33 2.67  28 2.67  15 2.84  13 2.87
                            43 2.87
  37  0.364  0.708  0.450-  81 1.89  31 2.65  29 2.65  52 2.68  39 2.68  50 2.72  38 2.72  23 2.93
                            57 2.93  14 2.94
  38  0.619  0.453  0.450-  81 1.85  30 2.64  32 2.65  52 2.68  40 2.68  50 2.72  37 2.72  14 2.93
                            41 2.94  63 2.94
  39  0.115  0.705  0.443-  27 2.65  35 2.65  28 2.66  29 2.67  50 2.68  37 2.68  57 2.80   3 2.84
                             2 2.84
  40  0.617  0.203  0.442-  27 2.65  34 2.65  36 2.66  32 2.66  38 2.68  50 2.68  41 2.80  43 2.84
                            72 2.84
  41  0.533  0.371  0.337-  14 2.65  57 2.65  15 2.65  63 2.65  43 2.67  72 2.67  40 2.80  51 2.80
                            80 2.86  79 2.87  38 2.94  50 2.95
  42  0.537  0.368  0.009-  64 2.66  17 2.67  18 2.67  59 2.67  74 2.67  44 2.67   7 2.86  22 2.86
                            61 2.87
  43  0.533  0.121  0.334-  15 2.66  13 2.66  73 2.67   1 2.67  72 2.67  41 2.67  80 2.81  69 2.81
                            71 2.83  40 2.84  36 2.87  34 2.88
  44  0.537  0.118  0.009-   4 2.66  74 2.66  18 2.67  42 2.67  75 2.67  16 2.67  19 2.86   7 2.86
                            53 2.87
  45  0.870  0.452  0.119-  22 2.66  25 2.66  54 2.66  21 2.67  46 2.67  11 2.67  77 2.82  12 2.82
                            67 2.83  58 2.86  64 2.86  10 2.86
  46  0.120  0.452  0.119-  70 2.66  61 2.66  53 2.67  21 2.67  54 2.67  45 2.67  62 2.82  76 2.83
                            12 2.83   6 2.86  10 2.86  18 2.87
  47  0.034  0.121  0.334-   9 2.66  13 2.66  72 2.66   2 2.66  63 2.68  23 2.68  77 2.81  65 2.82
                            26 2.83  33 2.85  29 2.86  32 2.87
  48  0.037  0.118  0.009-  16 2.66  24 2.66  64 2.66  74 2.67  10 2.67   5 2.67  49 2.86  54 2.86
                            11 2.87
  49  0.120  0.952  0.119-  78 2.66  70 2.66  11 2.67  60 2.67  54 2.67   8 2.67  26 2.82  68 2.83
                            65 2.83  48 2.86   5 2.86  24 2.87
  50  0.364  0.453  0.450-  81 1.85  28 2.64  36 2.65  39 2.68  40 2.68  38 2.72  37 2.72  57 2.94
                            15 2.94  41 2.95
  51  0.452  0.536  0.230-  79 2.66  80 2.66  67 2.66  76 2.66  66 2.66  68 2.66  41 2.80  14 2.81
                            57 2.82  61 2.87  60 2.87  22 2.88
  52  0.617  0.705  0.442-  34 2.65  35 2.65  30 2.67  31 2.67  38 2.68  37 2.68  14 2.80  73 2.83
                            56 2.84
  53  0.370  0.202  0.119-  19 2.66   8 2.66  54 2.66  46 2.67   7 2.67  61 2.67  69 2.82  80 2.82
                            62 2.83  18 2.86  16 2.86  44 2.87
  54  0.120  0.202  0.119-  53 2.66  45 2.66   8 2.67  49 2.67  46 2.67  11 2.67  26 2.82  62 2.82
                            77 2.83  10 2.86  48 2.86  16 2.87
  55  0.951  0.786  0.227-  20 2.66  71 2.66  65 2.66  12 2.67  68 2.67  76 2.67   3 2.82   2 2.82
                            21 2.82  78 2.82  70 2.83   1 2.84
  56  0.784  0.620  0.334-  63 2.66   9 2.67   3 2.67   1 2.67  73 2.67  14 2.67  67 2.81  20 2.81
                            12 2.82  52 2.84  30 2.86  35 2.88
  57  0.284  0.620  0.337-  41 2.65  14 2.65  15 2.65  23 2.66   3 2.67   2 2.67  39 2.80  51 2.82
                            68 2.86  76 2.86  37 2.93  50 2.94
  58  0.787  0.618  0.009-  17 2.66  75 2.66   6 2.66  64 2.67  10 2.67   4 2.67  45 2.86  21 2.86
                            25 2.87
  59  0.287  0.618  0.010-   5 2.66   6 2.66  24 2.67  42 2.67  18 2.67  17 2.67  60 2.86  61 2.86
                            70 2.87
  60  0.370  0.702  0.119-   8 2.66  25 2.66  22 2.67  49 2.67  61 2.67  70 2.67  66 2.82  68 2.83
                            59 2.86  24 2.86  17 2.87  51 2.87
[...]

  length of vectors
    10.659999999 10.659999847 22.000000000     0.108320876  0.108320878  0.045454545

 FORCES acting on ions
    electron-ion (+dipol)            ewald-force                    non-local-force                 convergence-correction
   -.112E+00 0.355E-01 -.135E+04   0.464E-01 0.336E-02 0.135E+04   0.187E-02 -.554E-03 0.447E+00   0.619E-01 -.345E-01 0.147E+00
   -.422E-01 -.318E+00 -.134E+04   0.779E-01 0.358E+00 0.134E+04   -.342E-01 0.137E-02 0.514E+00   0.777E-03 -.438E-01 0.139E+00
   0.580E+00 0.550E-01 -.134E+04   -.592E+00 -.962E-01 0.134E+04   -.395E-01 0.181E-01 0.496E+00   0.377E-01 0.179E-01 0.133E+00
   -.331E+00 0.100E+01 0.268E+04   0.337E+00 -.979E+00 -.268E+04   -.273E-02 -.221E-01 -.198E+00   0.845E-02 -.190E-01 -.419E-01
   -.297E+00 0.771E+00 0.268E+04   0.363E+00 -.739E+00 -.268E+04   -.460E-01 -.158E-01 -.271E+00   -.222E-01 -.354E-02 -.416E-01
   -.705E+00 0.711E+00 0.268E+04   0.707E+00 -.775E+00 -.268E+04   0.180E-01 0.460E-01 -.278E+00   -.195E-01 0.165E-01 -.437E-01
   0.752E+00 -.297E+01 0.136E+04   -.799E+00 0.299E+01 -.136E+04   -.199E-01 0.196E-01 -.466E+00   0.538E-01 -.689E-02 -.104E+00
   0.482E+00 0.171E+01 0.136E+04   -.488E+00 -.166E+01 -.136E+04   -.178E-01 -.287E-01 -.452E+00   -.135E-01 -.329E-01 -.106E+00
   0.328E-01 -.146E+01 -.135E+04   -.634E-01 0.145E+01 0.135E+04   0.587E-02 -.737E-03 0.400E+00   0.269E-01 0.246E-01 0.146E+00
   -.106E+00 -.609E+00 0.268E+04   0.156E+00 0.527E+00 -.268E+04   -.375E-01 0.690E-01 -.277E+00   -.308E-01 0.367E-01 -.557E-01
   0.669E+00 -.144E+01 0.136E+04   -.621E+00 0.143E+01 -.136E+04   -.105E-02 0.327E-01 -.437E+00   -.110E-01 0.419E-02 -.933E-01
   -.377E+00 0.322E+00 0.494E+01   0.348E+00 -.372E+00 -.494E+01   -.132E-02 0.492E-01 -.287E-01   0.291E-01 0.306E-01 0.259E-01
   -.768E+00 0.104E+01 -.134E+04   0.796E+00 -.105E+01 0.134E+04   -.149E-01 -.102E-01 0.422E+00   -.256E-01 0.188E-01 0.180E+00
   0.364E+01 0.186E+01 -.137E+04   -.372E+01 -.193E+01 0.137E+04   0.111E+00 0.787E-01 0.409E+00   -.381E-01 0.602E-02 0.145E+00
   -.266E+01 -.119E+01 -.136E+04   0.290E+01 0.127E+01 0.136E+04   -.202E+00 -.131E+00 0.284E+00   -.138E-01 0.605E-01 0.158E+00
   -.701E+00 -.997E-01 0.268E+04   0.695E+00 0.974E-01 -.268E+04   0.522E-01 -.254E-01 -.278E+00   -.525E-02 0.686E-04 -.823E-01
   0.189E+01 0.675E-01 0.268E+04   -.188E+01 -.641E-01 -.268E+04   -.638E-01 0.133E-01 -.232E+00   0.184E-01 -.225E-01 -.606E-01
   -.650E+00 -.983E+00 0.267E+04   0.567E+00 0.872E+00 -.267E+04   0.639E-01 0.726E-01 -.105E+00   0.670E-02 0.291E-01 -.739E-01
   0.225E+00 -.581E+00 0.136E+04   -.268E+00 0.620E+00 -.136E+04   -.160E-01 0.173E-01 -.464E+00   0.581E-01 -.455E-01 -.109E+00
   0.116E+01 0.131E+01 0.826E+01   -.122E+01 -.128E+01 -.829E+01   0.102E-01 0.508E-02 0.147E-01   0.637E-01 -.405E-01 0.140E-01
   -.121E+00 0.961E+00 0.136E+04   0.112E+00 -.953E+00 -.136E+04   -.111E-01 -.308E-01 -.457E+00   0.164E-01 -.477E-02 -.813E-01
   0.522E+01 -.338E+01 0.135E+04   -.528E+01 0.340E+01 -.135E+04   -.399E-01 0.314E-01 -.318E+00   0.312E-01 -.600E-02 -.109E+00
   -.399E-01 0.270E+01 -.135E+04   0.916E-01 -.293E+01 0.135E+04   0.914E-02 0.217E+00 0.340E+00   -.612E-01 -.183E-01 0.160E+00
   -.221E+00 0.131E+01 0.268E+04   0.244E+00 -.118E+01 -.268E+04   0.346E-03 -.882E-01 -.105E+00   -.920E-02 -.264E-01 -.676E-01
   0.286E+01 0.171E+01 0.136E+04   -.291E+01 -.169E+01 -.136E+04   -.298E-01 -.526E-02 -.472E+00   0.332E-01 -.434E-01 -.112E+00
   -.600E-01 0.223E+01 0.486E+01   0.115E+00 -.222E+01 -.497E+01   0.696E-02 -.222E-02 0.702E-01   -.619E-01 -.153E-01 0.511E-01
   0.429E+00 0.212E+00 -.267E+04   -.491E+00 -.191E+00 0.267E+04   0.417E-01 0.114E-01 0.206E+00   0.195E-01 -.318E-01 0.641E-01
   0.991E+01 0.860E+00 -.267E+04   -.980E+01 -.843E+00 0.267E+04   -.144E+00 -.313E-01 0.168E+00   0.185E-01 0.238E-01 0.543E-01
   0.342E+01 -.763E+01 -.266E+04   -.339E+01 0.757E+01 0.266E+04   -.220E-01 0.657E-01 0.162E+00   -.157E-01 -.255E-01 0.594E-01
   -.835E+01 0.926E+00 -.266E+04   0.819E+01 -.891E+00 0.266E+04   0.141E+00 -.286E-01 0.158E+00   0.295E-01 0.297E-02 0.756E-01
   -.348E+01 -.684E+01 -.266E+04   0.345E+01 0.676E+01 0.266E+04   0.480E-01 0.589E-01 0.159E+00   -.191E-01 0.171E-02 0.831E-01
   -.537E+01 0.751E+01 -.266E+04   0.526E+01 -.738E+01 0.266E+04   0.104E+00 -.987E-01 0.161E+00   0.774E-02 -.336E-01 0.780E-01
   0.814E+00 0.103E+01 -.267E+04   -.824E+00 -.996E+00 0.267E+04   0.191E-02 -.283E-01 0.223E+00   0.570E-02 -.725E-02 0.722E-01
   -.564E+00 0.104E+01 -.267E+04   0.579E+00 -.104E+01 0.267E+04   -.320E-01 0.804E-02 0.205E+00   0.153E-01 -.422E-02 0.875E-01
   0.688E+00 -.164E+01 -.267E+04   -.730E+00 0.168E+01 0.267E+04   -.941E-03 -.241E-01 0.210E+00   0.414E-01 0.583E-02 0.627E-01
   0.534E+01 0.849E+01 -.267E+04   -.525E+01 -.839E+01 0.267E+04   -.925E-01 -.113E+00 0.168E+00   -.686E-02 0.141E-01 0.799E-01
   -.545E+00 -.197E+02 -.268E+04   0.571E+00 0.205E+02 0.268E+04   0.830E-02 -.894E+00 -.289E-01   -.393E-01 0.164E-01 0.578E-01
   -.180E+02 0.101E+02 -.268E+04   0.186E+02 -.105E+02 0.268E+04   -.618E+00 0.320E+00 -.230E+00   -.154E-01 0.370E-02 0.758E-01
   0.621E+01 -.541E+01 -.265E+04   -.635E+01 0.550E+01 0.265E+04   0.159E+00 -.888E-01 0.237E+00   -.481E-02 0.679E-02 0.440E-01
   -.832E+00 0.811E+01 -.265E+04   0.823E+00 -.823E+01 0.265E+04   0.122E-01 0.157E+00 0.255E+00   -.632E-02 -.130E-01 0.866E-01
   -.171E+00 -.407E+01 -.137E+04   0.187E+00 0.418E+01 0.137E+04   0.918E-02 -.133E+00 0.419E+00   -.274E-01 0.260E-01 0.148E+00
   0.106E+01 -.158E+01 0.268E+04   -.107E+01 0.155E+01 -.268E+04   -.173E-01 0.322E-01 -.226E+00   0.305E-01 0.110E-01 -.643E-01
   0.190E+00 0.292E+00 -.134E+04   -.210E+00 -.241E+00 0.134E+04   0.607E-02 -.616E-01 0.500E+00   0.105E-01 0.120E-01 0.174E+00
   0.129E+01 -.138E+01 0.268E+04   -.135E+01 0.137E+01 -.268E+04   0.973E-03 0.325E-01 -.273E+00   0.339E-01 -.946E-02 -.738E-01
   0.124E+01 -.583E+00 0.136E+04   -.121E+01 0.520E+00 -.136E+04   -.312E-01 0.828E-02 -.451E+00   -.857E-02 0.201E-01 -.962E-01
   -.160E+01 -.465E+00 0.135E+04   0.163E+01 0.363E+00 -.135E+04   0.875E-02 0.166E-02 -.445E+00   -.291E-01 0.609E-01 -.754E-01
   0.802E+00 0.978E+00 -.134E+04   -.810E+00 -.939E+00 0.134E+04   0.280E-01 -.122E-01 0.430E+00   -.782E-02 -.320E-01 0.153E+00
   -.302E+00 -.148E+00 0.268E+04   0.369E+00 0.135E+00 -.268E+04   -.565E-01 -.985E-02 -.275E+00   -.353E-01 0.126E-01 -.544E-01
   -.688E+00 0.197E+01 0.136E+04   0.773E+00 -.195E+01 -.136E+04   0.192E-01 -.244E-01 -.453E+00   -.560E-01 -.111E-01 -.746E-01
   0.165E+02 0.100E+02 -.268E+04   -.171E+02 -.104E+02 0.268E+04   0.631E+00 0.315E+00 -.223E+00   -.299E-01 0.230E-01 0.548E-01
   0.437E+00 -.495E+00 -.217E+02   -.408E+00 0.471E+00 0.221E+02   -.464E-02 0.230E-01 -.409E+00   -.288E-01 0.183E-01 0.464E-01
   -.642E+01 -.447E+01 -.265E+04   0.654E+01 0.455E+01 0.265E+04   -.134E+00 -.920E-01 0.246E+00   0.499E-02 0.145E-01 0.887E-01
   -.121E+01 -.175E+01 0.136E+04   0.117E+01 0.172E+01 -.136E+04   0.164E-01 0.429E-01 -.447E+00   0.116E-01 0.224E-01 -.103E+00
   -.152E+00 -.480E+00 0.136E+04   0.209E+00 0.446E+00 -.136E+04   -.551E-02 0.318E-02 -.435E+00   -.543E-01 0.313E-01 -.898E-01
   -.145E+01 0.140E+01 0.655E+01   0.143E+01 -.139E+01 -.660E+01   -.192E-01 0.864E-02 0.395E-02   0.281E-01 -.222E-01 0.377E-01
   -.492E+00 -.658E-01 -.134E+04   0.401E+00 0.462E-01 0.134E+04   0.520E-01 0.226E-01 0.509E+00   0.504E-01 -.323E-02 0.137E+00
   -.397E+01 0.182E+01 -.138E+04   0.412E+01 -.191E+01 0.138E+04   -.912E-01 0.757E-01 0.396E+00   -.503E-01 0.261E-01 0.141E+00
   -.197E+00 0.607E+00 0.268E+04   0.241E+00 -.660E+00 -.268E+04   -.339E-01 0.477E-01 -.276E+00   -.228E-02 -.554E-02 -.437E-01
   -.688E+00 0.934E+00 0.267E+04   0.699E+00 -.946E+00 -.267E+04   0.182E-01 -.724E-02 -.235E+00   0.331E-02 -.170E-03 -.609E-01
   0.594E+00 0.600E+01 0.135E+04   -.567E+00 -.601E+01 -.135E+04   -.215E-01 -.369E-01 -.309E+00   -.163E-01 -.172E-01 -.905E-01
[...]
   -.266E+01 0.501E+01 0.175E+01   0.277E+01 -.500E+01 -.185E+01   -.491E-01 -.159E-01 0.267E-01   -.609E-01 -.143E-01 0.597E-01
   0.537E+00 -.110E+01 0.642E+01   -.558E+00 0.112E+01 -.644E+01   0.132E-01 0.384E-02 -.209E-01   0.113E-01 -.851E-02 0.419E-01
   -.301E+01 0.207E+01 0.135E+04   0.307E+01 -.211E+01 -.135E+04   0.203E-01 -.312E-02 -.467E+00   -.334E-01 0.187E-01 -.573E-01
   -.288E-01 -.194E+01 0.726E+01   -.315E-01 0.198E+01 -.729E+01   -.589E-03 -.133E-01 -.572E-02   0.612E-01 -.393E-01 0.208E-01
   -.303E+00 0.363E+00 -.134E+04   0.278E+00 -.264E+00 0.134E+04   -.188E-02 -.632E-01 0.505E+00   0.229E-01 -.394E-01 0.146E+00
   0.848E-02 -.646E-01 -.134E+04   -.583E-01 0.708E-01 0.134E+04   0.501E-01 0.167E-02 0.527E+00   -.174E-02 -.114E-01 0.171E+00
   0.273E-01 -.444E+00 0.268E+04   0.363E-01 0.425E+00 -.268E+04   -.645E-01 0.126E-01 -.277E+00   0.653E-02 0.341E-02 -.462E-01
   0.113E+01 -.256E+00 0.268E+04   -.116E+01 0.324E+00 -.268E+04   -.236E-02 -.153E-01 -.271E+00   0.228E-01 -.399E-01 -.693E-01
   -.503E+01 -.146E+00 -.104E+01   0.507E+01 0.225E-01 0.968E+00   -.198E-01 0.793E-01 0.905E-02   -.232E-01 0.598E-01 0.642E-01
   0.230E+01 -.127E+01 0.440E+01   -.230E+01 0.125E+01 -.447E+01   -.180E-01 0.578E-02 0.537E-01   -.126E-01 0.149E-01 0.193E-01
   0.346E-01 -.519E-02 0.136E+04   -.441E-01 0.212E-01 -.136E+04   0.462E-02 0.116E-01 -.454E+00   0.113E-01 -.241E-01 -.773E-01
   0.232E+01 -.417E+01 0.472E+01   -.231E+01 0.422E+01 -.479E+01   -.238E-01 -.491E-01 0.548E-01   0.231E-01 -.434E-02 0.109E-01
   -.211E+01 -.435E+01 0.186E+01   0.205E+01 0.435E+01 -.195E+01   0.355E-01 -.529E-01 0.536E-01   0.104E-01 0.460E-01 0.492E-01
   -.184E+00 -.937E+00 -.319E+03   0.192E+00 0.105E+01 0.321E+03   -.473E-02 -.928E-01 -.164E+01   -.301E-02 0.161E-02 0.339E-02
   0.826E-01 0.295E+00 0.142E+01   0.465E-12 -.726E-12 -.847E-11   -.102E+00 -.288E+00 -.326E+01   -.174E-02 0.892E-03 0.171E+01

 POSITION                                       TOTAL-FORCE (eV/Angst)
     12.99275      8.03580      7.36461        -0.000175      0.003766     -0.011213
      5.00059      8.03729      7.34354         0.008912     -0.007006      0.007914
      3.66651      5.72520      7.34984        -0.006015     -0.008701     -0.005801
     13.01699      8.01154      0.20256         0.012565     -0.015578      0.015105
      5.02298      8.00900      0.20656        -0.001435      0.012971     -0.023350
      3.68983      5.70195      0.21045         0.000925     -0.002088     -0.025743
      7.68057      1.86158      2.61765        -0.013080      0.036564     -0.012884
      9.01270      8.78497      2.62059        -0.037733     -0.007411     -0.034119
      2.33276      3.41790      7.35954         0.002867      0.010063     -0.019514
      2.35894      3.39386      0.21148        -0.018308      0.023308     -0.044809
     10.34414      1.86096      2.61700         0.036301      0.028875     -0.028689
     12.99994      4.94483      4.99180        -0.000031      0.028463      0.004811
      3.66439      1.11381      7.35455        -0.011720      0.000580     -0.020899
      8.98816      5.72341      7.40566        -0.022801      0.004927      0.013126
      5.00847      3.42697      7.38610         0.014077      0.006947      0.016658
      3.68867      1.08692      0.21030         0.040159     -0.026961     -0.044920
      9.02153      5.70186      0.20679        -0.033482     -0.005846      0.012710
      5.02250      3.39313      0.21271        -0.012994     -0.009961      0.010118
     11.67678      8.78525      2.61762        -0.001507      0.011644     -0.006676
     11.66865      7.25550      4.98207         0.009849     -0.008060      0.001951
     13.01078      6.47742      2.61939        -0.003420     -0.028840     -0.002112
      9.01343      4.16895      2.61982        -0.062026      0.039418      0.119402
      7.66255      8.02404      7.37483        -0.000985     -0.020931      0.025746
      7.68689      8.01068      0.20712         0.013700      0.016654      0.015216
     10.34594      6.47730      2.61897        -0.045731     -0.031193     -0.009908
      2.33977      0.32823      4.98497        -0.000496     -0.001093      0.013936
     14.32185      8.81367      9.77993        -0.000244      0.001001     -0.020861
      3.66107      4.19939      9.77795        -0.014696      0.008729     -0.012668
      6.32390      8.81786      9.76621        -0.001364     -0.023832     -0.014978
     11.65762      4.19922      9.76727         0.012389      0.008131     -0.010750
      8.99459      8.81763      9.76581        -0.000252     -0.023211     -0.017626
     10.32250      1.88761      9.76376         0.004996      0.000206     -0.012735
      2.32958      1.89115      9.75183        -0.002428      0.000442      0.001571
     11.65688      8.81340      9.77984        -0.001089      0.003623     -0.018252
     12.98930      6.50334      9.78068        -0.001256      0.020645     -0.016264
      4.99683      1.88763      9.77256        -0.012129      0.001883     -0.013796
      7.65970      6.53745      9.89864        -0.004599     -0.005740      0.032466
      9.01742      4.18499      9.90479        -0.008642     -0.005228      0.026680
      4.98304      6.51297      9.73641         0.016314      0.002838      0.009299
      7.65940      1.87711      9.73249        -0.002440      0.019820      0.012653
      7.66250      3.42848      7.40551        -0.002171      0.012788      0.017441
      7.68752      3.39475      0.20640         0.001066      0.014909      0.011210
      6.32857      1.11482      7.34593        -0.000636      0.008382     -0.007192
      6.35605      1.08575      0.20493        -0.015671      0.007197     -0.018514
     11.67800      4.16933      2.62083        -0.010290     -0.035693     -0.025445
      3.68403      4.16936      2.62545         0.008388     -0.039590     -0.008784
      1.00150      1.11384      7.34951         0.011707     -0.004757     -0.018651
      1.02537      1.08636      0.20632        -0.024684     -0.009768     -0.043336
      6.34686      8.78490      2.62017         0.046643     -0.006124     -0.035645
      6.30150      4.18537      9.91094         0.003565     -0.002290      0.033843
      7.67061      4.94655      5.05166        -0.005138      0.017487      0.001425
     10.33551      6.51292      9.73075        -0.018344      0.003454      0.013546
      5.01497      1.86032      2.62358        -0.008420      0.035289     -0.020955
      2.35015      1.86129      2.62373        -0.002604      0.000775     -0.042096
     14.33142      7.25489      4.98552        -0.011906     -0.005417      0.001070
     11.65898      5.72520      7.34384         0.006620     -0.004851     -0.004072
      6.33685      5.72348      7.41079         0.020132      0.002296      0.007194
     11.68508      5.70209      0.20591         0.008057     -0.010104     -0.019729
      6.35421      5.70254      0.21091         0.031528     -0.018928      0.012332
      7.68150      6.47750      2.62192        -0.010775     -0.069521      0.131490
[...]
     10.33161      4.94603      4.98957        -0.005326      0.015885     -0.004743
      6.33883      7.25125      4.99271         0.004194     -0.014104     -0.010381
      5.00435      0.33093      4.98900         0.003108      0.017482      0.003670
      5.01519      6.47693      2.62313         0.054160     -0.027940     -0.002250
      7.66936      0.33004      4.98457         0.001402     -0.001523     -0.004482
      8.99745      1.11481      7.34228        -0.003484      0.003220     -0.006553
     10.32530      8.03722      7.34132        -0.006795     -0.007555      0.010666
      9.02032      1.08655      0.20166         0.005870     -0.002470     -0.020006
     10.35256      8.00941      0.20403        -0.009748      0.012893     -0.019872
      5.00879      4.94589      4.99847        -0.000606      0.012713      0.000057
     11.66649      2.63945      4.98653        -0.022586     -0.000163      0.000276
     14.34290      8.78548      2.61683         0.007889      0.004275     -0.005085
      9.00007      2.64205      4.98613         0.009604     -0.007197     -0.000218
      6.33897      2.64266      4.99197        -0.010550     -0.006821      0.004443
      7.66166      4.93838     10.91483         0.000237      0.018516     -0.001647
    total drift:                               -0.020748      0.007767     -0.130729

  FREE ENERGIE OF THE ION-ELECTRON SYSTEM (eV)
  free  energy   TOTEN  =      -518.16963080 eV

  energy  without entropy=     -518.10228428  energy(sigma->0) =     -518.14718196

 reached required accuracy - stopping structural energy minimisation