 vasp.5.4.4.18Apr17-6-g9f103f2a35 (build Nov 30 2020 22:55:02) complex

 executed on             LinuxIFC date 2023.07.28  20:16:56

 INCAR:
 POTCAR:    PAW_PBE Pt 04Feb2005
 POTCAR:    PAW_PBE Pt 04Feb2005
   VRHFIN =Pt: s1d9

   TITEL  = PAW_PBE Pt 04Feb2005
   POMASS =  195.080; ZVAL   =   10.000    mass and valenz
   ENMAX  =  230.283; ENMIN  =  172.712 eV

 Optimization of the real space projectors (new method)

 maximal supplied QI-value         = 14.36
 optimisation between [QCUT,QGAM] = [ 11.92, 23.98] = [ 39.79,161.09] Ry
 Optimized for a Real-space Cutoff    1.49 Angstroem

   l    n(q)    QCUT    max X(q) W(low)/X(q) W(high)/X(q)  e(spline)
   2     10    11.920    66.195    0.79E-04    0.18E-03    0.24E-06
   2     10    11.920    64.643    0.81E-04    0.19E-03    0.24E-06
   0     11    11.920    95.520    0.28E-04    0.54E-04    0.18E-06
   0     11    11.920    63.403    0.27E-04    0.52E-04    0.17E-06
   1     10    11.920    19.961    0.18E-04    0.11E-03    0.23E-06
   1     10    11.920    13.289    0.25E-04    0.87E-04    0.19E-06
  PAW_PBE Pt 04Feb2005                  :

 POSCAR: Pt111\(1\1\1)\(2)
  positions in direct lattice
 exchange correlation table for  LEXCH =        8
   RHO(1)=    0.500       N(1)  =     2000
   RHO(2)=  100.500       N(2)  =     4000

 ion  position               nearest neighbor table
   1  0.000  0.000  0.066-   5 2.64   9 2.64  13 2.64  29 2.64  37 2.64  57 2.64  42 2.75  14 2.75
                            54 2.75
   2  0.333  0.167  0.180-  30 2.64  26 2.64  38 2.64  42 2.64  14 2.64   6 2.64  15 2.75   7 2.75
                             9 2.75  21 2.75  13 2.75  11 2.75
   3  0.167  0.333  0.295-  39 2.64  27 2.64  43 2.64   7 2.64  15 2.64  31 2.64  14 2.75   6 2.75
                            12 2.75   8 2.75  48 2.75  10 2.75
   4  0.000  0.000  0.409-   8 2.64  12 2.64  16 2.64  32 2.64  40 2.64  60 2.64  27 2.75   7 2.75
                            63 2.75
   5  1.000  0.250  0.066-   1 2.64  45 2.64  33 2.64   9 2.64  29 2.64  25 2.64  14 2.75  10 2.75
                            18 2.75
   6  0.333  0.417  0.180-  26 2.64  62 2.64  10 2.64  34 2.64  14 2.64   2 2.64  43 2.75   3 2.75
                            45 2.75  49 2.75   9 2.75  15 2.75
   7  0.167  0.083  0.295-  27 2.64  15 2.64   3 2.64  63 2.64  11 2.64  35 2.64  42 2.75   2 2.75
                            16 2.75   4 2.75  12 2.75  14 2.75
   8  1.000  0.250  0.409-   4 2.64  48 2.64  36 2.64  12 2.64  32 2.64  28 2.64  31 2.75   3 2.75
                            27 2.75
   9  0.250  0.250  0.066-  21 2.64  13 2.64  49 2.64   1 2.64  45 2.64   5 2.64   2 2.75  14 2.75
                             6 2.75
  10  0.083  0.417  0.180-  34 2.64   6 2.64  46 2.64  14 2.64  18 2.64  22 2.64  39 2.75  31 2.75
                            33 2.75  45 2.75   5 2.75   3 2.75
  11  0.417  0.083  0.295-  19 2.64  15 2.64   7 2.64  47 2.64  35 2.64  23 2.64  30 2.75  38 2.75
                            20 2.75  16 2.75  24 2.75   2 2.75
  12  0.250  0.250  0.409-  24 2.64  16 2.64  52 2.64   4 2.64  48 2.64   8 2.64   3 2.75  15 2.75
                             7 2.75
  13  0.250  0.000  0.066-  21 2.64   9 2.64  17 2.64   1 2.64  37 2.64  41 2.64  38 2.75   2 2.75
                            42 2.75
  14  0.083  0.167  0.180-  42 2.64  54 2.64   6 2.64   2 2.64  10 2.64  18 2.64  27 2.75   3 2.75
                             5 2.75   1 2.75   9 2.75   7 2.75
  15  0.417  0.333  0.295-  43 2.64   7 2.64   3 2.64  11 2.64  55 2.64  19 2.64  26 2.75   2 2.75
                            24 2.75  12 2.75  52 2.75   6 2.75
  16  0.250  0.000  0.409-  24 2.64  12 2.64  20 2.64   4 2.64  40 2.64  44 2.64   7 2.75  11 2.75
                            35 2.75
  17  0.500  0.000  0.066-  29 2.64  25 2.64  13 2.64  21 2.64  41 2.64  53 2.64  58 2.75  30 2.75
                            38 2.75
  18  0.833  0.167  0.180-  54 2.64  58 2.64  22 2.64  30 2.64  10 2.64  14 2.64  23 2.75  31 2.75
                            25 2.75  29 2.75   5 2.75  27 2.75
  19  0.667  0.333  0.295-  55 2.64  31 2.64  59 2.64  11 2.64  23 2.64  15 2.64  22 2.75  30 2.75
                            28 2.75  64 2.75  24 2.75  26 2.75
  20  0.500  0.000  0.409-  32 2.64  28 2.64  16 2.64  24 2.64  44 2.64  56 2.64  11 2.75  23 2.75
                            47 2.75
  21  0.500  0.250  0.066-  25 2.64  61 2.64   9 2.64  13 2.64  49 2.64  17 2.64  30 2.75   2 2.75
                            26 2.75
  22  0.833  0.417  0.180-  50 2.64  26 2.64  30 2.64  18 2.64  46 2.64  10 2.64  19 2.75  59 2.75
                            61 2.75  25 2.75  33 2.75  31 2.75
  23  0.667  0.083  0.295-  27 2.64  31 2.64  19 2.64  51 2.64  47 2.64  11 2.64  18 2.75  58 2.75
                            32 2.75  28 2.75  20 2.75  30 2.75
  24  0.500  0.250  0.409-  28 2.64  64 2.64  12 2.64  16 2.64  52 2.64  20 2.64  15 2.75  11 2.75
                            19 2.75
  25  0.750  0.250  0.066-  21 2.64  17 2.64  29 2.64  61 2.64  33 2.64   5 2.64  18 2.75  22 2.75
                            30 2.75
  26  0.583  0.417  0.180-   6 2.64   2 2.64  22 2.64  30 2.64  62 2.64  50 2.64  55 2.75  15 2.75
                            49 2.75  61 2.75  21 2.75  19 2.75
  27  0.917  0.083  0.295-  23 2.64   7 2.64   3 2.64  51 2.64  31 2.64  63 2.64  54 2.75  14 2.75
                             4 2.75   8 2.75  32 2.75  18 2.75
  28  0.750  0.250  0.409-  24 2.64  20 2.64  32 2.64  64 2.64  36 2.64   8 2.64  19 2.75  23 2.75
                            31 2.75
  29  0.750  0.000  0.066-  17 2.64  25 2.64   5 2.64  53 2.64   1 2.64  57 2.64  54 2.75  18 2.75
                            58 2.75
  30  0.583  0.167  0.180-   2 2.64  38 2.64  58 2.64  26 2.64  22 2.64  18 2.64  11 2.75  21 2.75
                            19 2.75  17 2.75  25 2.75  23 2.75
  31  0.917  0.333  0.295-  59 2.64  19 2.64  23 2.64  39 2.64   3 2.64  27 2.64  18 2.75  10 2.75
                             8 2.75  36 2.75  28 2.75  22 2.75
  32  0.750  0.000  0.409-  20 2.64  28 2.64   8 2.64  56 2.64   4 2.64  60 2.64  23 2.75  27 2.75
                            51 2.75
  33  1.000  0.500  0.066-  37 2.64  41 2.64   5 2.64  45 2.64  25 2.64  61 2.64  10 2.75  46 2.75
                            22 2.75
  34  0.333  0.667  0.180-  62 2.64  10 2.64  58 2.64  46 2.64   6 2.64  38 2.64  47 2.75  39 2.75
                            41 2.75  45 2.75  53 2.75  43 2.75
  35  0.167  0.833  0.295-  63 2.64  59 2.64   7 2.64  11 2.64  47 2.64  39 2.64  46 2.75  38 2.75
                            44 2.75  40 2.75  16 2.75  42 2.75
  36  1.000  0.500  0.409-  40 2.64  44 2.64   8 2.64  48 2.64  28 2.64  64 2.64  59 2.75  39 2.75
                            31 2.75
  37  1.000  0.750  0.066-  33 2.64  41 2.64  61 2.64  57 2.64  13 2.64   1 2.64  46 2.75  50 2.75
                            42 2.75
  38  0.333  0.917  0.180-  58 2.64  30 2.64   2 2.64  42 2.64  34 2.64  46 2.64  11 2.75  35 2.75
                            13 2.75  17 2.75  41 2.75  47 2.75
  39  0.167  0.583  0.295-   3 2.64  31 2.64  59 2.64  43 2.64  47 2.64  35 2.64  10 2.75  34 2.75
                            48 2.75  36 2.75  44 2.75  46 2.75
  40  1.000  0.750  0.409-  36 2.64  44 2.64  64 2.64  60 2.64  16 2.64   4 2.64  63 2.75  35 2.75
                            59 2.75
  41  0.250  0.750  0.066-  45 2.64  33 2.64  37 2.64  53 2.64  17 2.64  13 2.64  34 2.75  46 2.75
                            38 2.75
  42  0.083  0.917  0.180-  14 2.64   2 2.64  38 2.64  46 2.64  50 2.64  54 2.64   7 2.75  63 2.75
                             1 2.75  13 2.75  37 2.75  35 2.75
  43  0.417  0.583  0.295-  15 2.64   3 2.64  39 2.64  51 2.64  47 2.64  55 2.64  62 2.75   6 2.75
                            52 2.75  56 2.75  48 2.75  34 2.75
  44  0.250  0.750  0.409-  48 2.64  36 2.64  40 2.64  56 2.64  20 2.64  16 2.64  35 2.75  39 2.75
                            47 2.75
  45  0.250  0.500  0.066-  41 2.64  53 2.64   5 2.64   9 2.64  49 2.64  33 2.64   6 2.75  10 2.75
                            34 2.75
  46  0.083  0.667  0.180-  34 2.64  50 2.64  10 2.64  42 2.64  22 2.64  38 2.64  59 2.75  35 2.75
                            37 2.75  33 2.75  41 2.75  39 2.75
  47  0.417  0.833  0.295-  39 2.64  43 2.64  11 2.64  23 2.64  35 2.64  51 2.64  58 2.75  34 2.75
                            56 2.75  44 2.75  20 2.75  38 2.75
  48  0.250  0.500  0.409-  44 2.64  56 2.64   8 2.64  12 2.64  52 2.64  36 2.64  39 2.75   3 2.75
                            43 2.75
  49  0.500  0.500  0.066-  61 2.64  53 2.64  57 2.64  21 2.64   9 2.64  45 2.64  26 2.75   6 2.75
                            62 2.75
  50  0.833  0.667  0.180-  22 2.64  46 2.64  26 2.64  42 2.64  54 2.64  62 2.64  55 2.75  63 2.75
                            57 2.75  61 2.75  37 2.75  59 2.75
  51  0.667  0.833  0.295-  63 2.64  27 2.64  43 2.64  55 2.64  23 2.64  47 2.64  54 2.75  62 2.75
                            60 2.75  32 2.75  56 2.75  58 2.75
  52  0.500  0.500  0.409-  64 2.64  56 2.64  60 2.64  24 2.64  12 2.64  48 2.64  43 2.75  15 2.75
                            55 2.75
  53  0.500  0.750  0.066-  49 2.64  57 2.64  45 2.64  41 2.64  29 2.64  17 2.64  62 2.75  34 2.75
                            58 2.75
  54  0.833  0.917  0.180-  18 2.64  14 2.64  50 2.64  58 2.64  42 2.64  62 2.64  51 2.75  27 2.75
                            29 2.75   1 2.75  57 2.75  63 2.75
  55  0.667  0.583  0.295-  19 2.64  59 2.64  63 2.64  15 2.64  51 2.64  43 2.64  50 2.75  26 2.75
                            64 2.75  60 2.75  52 2.75  62 2.75
  56  0.500  0.750  0.409-  52 2.64  60 2.64  48 2.64  44 2.64  32 2.64  20 2.64  47 2.75  43 2.75
                            51 2.75
  57  0.750  0.750  0.066-  61 2.64  49 2.64  53 2.64  37 2.64   1 2.64  29 2.64  50 2.75  62 2.75
                            54 2.75
  58  0.583  0.917  0.180-  38 2.64  30 2.64  18 2.64  34 2.64  62 2.64  54 2.64  47 2.75  23 2.75
                            17 2.75  29 2.75  53 2.75  51 2.75
  59  0.917  0.583  0.295-  31 2.64  55 2.64  19 2.64  39 2.64  35 2.64  63 2.64  22 2.75  46 2.75
                            36 2.75  40 2.75  64 2.75  50 2.75
  60  0.750  0.750  0.409-  64 2.64  52 2.64  56 2.64  40 2.64   4 2.64  32 2.64  51 2.75  55 2.75
                            63 2.75
  61  0.750  0.500  0.066-  49 2.64  57 2.64  21 2.64  25 2.64  37 2.64  33 2.64  22 2.75  26 2.75
                            50 2.75
  62  0.583  0.667  0.180-  34 2.64   6 2.64  26 2.64  58 2.64  54 2.64  50 2.64  43 2.75  53 2.75
                            51 2.75  49 2.75  57 2.75  55 2.75
  63  0.917  0.833  0.295-  51 2.64  35 2.64  55 2.64   7 2.64  59 2.64  27 2.64  50 2.75  42 2.75
                            40 2.75   4 2.75  60 2.75  54 2.75
  64  0.750  0.500  0.409-  52 2.64  60 2.64  24 2.64  28 2.64  40 2.64  36 2.64  55 2.75  19 2.75
                            59 2.75

  LATTYP: Found a hexagonal cell.
 ALAT       =    10.5600004196
 C/A-ratio  =     1.8939393187

  Lattice vectors:

 A1 = (  10.5600004196,   0.0000000000,   0.0000000000)
 A2 = (  -5.2800002098,   9.1452286274,   0.0000000000)
 A3 = (   0.0000000000,   0.0000000000,  20.0000000000)

[...]
    416      10.4061      0.00000
    417      10.4474      0.00000
    418      10.4474      0.00000
    419      10.4474      0.00000
    420      10.4474      0.00000

[...]

 soft charge-density along one line, spin component           2
         0         1         2         3         4         5         6         7         8         9
 total charge-density along one line

------------------------ aborting loop because EDIFF is reached ----------------------------------------

         DFTD3 V3.0 Rev 1
 Edisp (eV)  -38.69807

 E6    (eV) :   -14.2567
 E8    (eV) :   -24.4414
 % E8        : 63.16

  FORCE on cell =-STRESS in cart. coord.  units (eV):
  Direction    XX          YY          ZZ          XY          YZ          ZX
  Alpha Z  2015.86452  2015.86452  2015.86452
  Ewald  163260.30494163260.32347************     0.01605     0.00916    -0.01588
  Hartree174137.77085174137.77597************     0.00443     0.00176    -0.00306
  E(xc)   -2856.29341 -2856.29322 -2881.78556     0.00016     0.00012    -0.00020
  Local  ************************359547.91530    -0.01593    -0.00710     0.01231
  n-local   572.73250   586.63114   315.54314    -4.00983     2.92510     1.62920
  augment  3253.08099  3253.07814  3532.95607    -0.00247    -0.00149     0.00256
  Kinetic  9195.45638  9106.85567  9741.43448    25.57039     7.68841     4.44632
  Fock        0.00000     0.00000     0.00000     0.00000     0.00000     0.00000
  vdW       -53.55119   -53.55147   -28.88451    -0.00024     0.00006    -0.00010
  Total      82.96191    82.96069     0.17133    -0.00105    -0.00051     0.00089
  in kB      68.81780    68.81680     0.14212    -0.00087    -0.00043     0.00074

 VOLUME and BASIS-vectors are now :
  energy-cutoff  :      550.00
  volume of cell :     1931.47
      direct lattice vectors                 reciprocal lattice vectors
    10.560000420  0.000000000  0.000000000     0.094696966  0.054673319  0.000000000
    -5.280000210  9.145228627  0.000000000     0.000000000  0.109346638  0.000000000
     0.000000000  0.000000000 20.000000000     0.000000000  0.000000000  0.050000000

  length of vectors
    10.560000420 10.560000420 20.000000000     0.109346638  0.109346638  0.050000000

 FORCES acting on ions
    electron-ion (+dipol)            ewald-force                    non-local-force                 convergence-correction
   0.452E-05 0.620E-04 0.231E+04   -.796E-04 -.164E-03 -.231E+04   -.355E-04 0.205E-04 -.105E+00   -.740E-07 0.385E-07 0.568E-03
   -.457E-03 0.330E-03 0.780E+03   0.256E-03 -.326E-03 -.780E+03   0.877E-05 -.506E-05 -.404E+00   -.555E-07 0.493E-07 0.595E-03
   0.523E-03 -.242E-03 -.780E+03   -.461E-03 0.170E-03 0.780E+03   -.877E-05 0.506E-05 0.404E+00   0.698E-07 -.232E-07 -.596E-03
   0.314E-04 0.393E-04 -.231E+04   -.376E-04 -.166E-03 0.231E+04   0.355E-04 -.205E-04 0.105E+00   0.721E-07 -.414E-07 -.568E-03
   0.961E-05 0.441E-04 0.231E+04   -.994E-04 -.681E-04 -.231E+04   -.355E-04 0.205E-04 -.105E+00   -.727E-07 0.401E-07 0.568E-03
   -.448E-03 0.320E-03 0.780E+03   0.291E-03 -.327E-03 -.780E+03   0.877E-05 -.506E-05 -.404E+00   -.521E-07 0.358E-07 0.595E-03
   0.509E-03 -.237E-03 -.780E+03   -.422E-03 0.124E-03 0.780E+03   -.877E-05 0.506E-05 0.404E+00   0.687E-07 -.190E-07 -.596E-03
   0.384E-04 0.257E-04 -.231E+04   -.636E-04 -.835E-04 0.231E+04   0.355E-04 -.205E-04 0.105E+00   0.716E-07 -.426E-07 -.568E-03
   0.107E-04 0.452E-04 0.231E+04   -.103E-03 -.718E-04 -.231E+04   -.355E-04 0.205E-04 -.105E+00   -.766E-07 0.392E-07 0.568E-03
   -.451E-03 0.326E-03 0.780E+03   0.301E-03 -.346E-03 -.780E+03   0.877E-05 -.506E-05 -.404E+00   -.542E-07 0.355E-07 0.595E-03
   0.487E-03 -.225E-03 -.780E+03   -.417E-03 0.845E-04 0.780E+03   -.877E-05 0.506E-05 0.404E+00   0.588E-07 -.208E-07 -.596E-03
   0.322E-04 0.259E-04 -.231E+04   -.431E-04 -.842E-04 0.231E+04   0.355E-04 -.205E-04 0.105E+00   0.736E-07 -.423E-07 -.568E-03
   0.161E-06 0.707E-04 0.231E+04   -.652E-04 -.193E-03 -.231E+04   -.355E-04 0.205E-04 -.105E+00   -.760E-07 0.365E-07 0.568E-03
   -.461E-03 0.321E-03 0.780E+03   0.296E-03 -.297E-03 -.780E+03   0.877E-05 -.506E-05 -.404E+00   -.542E-07 0.460E-07 0.595E-03
   0.507E-03 -.240E-03 -.780E+03   -.410E-03 0.163E-03 0.780E+03   -.877E-05 0.506E-05 0.404E+00   0.624E-07 -.269E-07 -.596E-03
   0.194E-04 0.439E-04 -.231E+04   0.157E-05 -.181E-03 0.231E+04   0.355E-04 -.205E-04 0.105E+00   0.745E-07 -.409E-07 -.568E-03
   -.173E-04 0.580E-04 0.231E+04   -.908E-05 -.152E-03 -.231E+04   -.355E-04 0.205E-04 -.105E+00   -.653E-07 0.406E-07 0.568E-03
   -.459E-03 0.294E-03 0.780E+03   0.522E-03 -.209E-03 -.780E+03   0.877E-05 -.506E-05 -.404E+00   -.601E-07 0.426E-07 0.595E-03
   0.478E-03 -.231E-03 -.780E+03   -.450E-03 0.134E-03 0.780E+03   -.877E-05 0.506E-05 0.404E+00   0.424E-07 -.340E-07 -.596E-03
   0.300E-04 0.433E-04 -.231E+04   -.328E-04 -.179E-03 0.231E+04   0.355E-04 -.205E-04 0.105E+00   0.672E-07 -.441E-07 -.568E-03
   0.208E-06 0.424E-04 0.231E+04   0.579E-05 -.632E-04 -.231E+04   -.355E-04 0.205E-04 -.105E+00   -.672E-07 0.442E-07 0.568E-03
   -.458E-03 0.304E-03 0.780E+03   0.586E-03 -.275E-03 -.780E+03   0.877E-05 -.506E-05 -.404E+00   -.635E-07 0.336E-07 0.595E-03
   0.465E-03 -.228E-03 -.780E+03   -.478E-03 0.946E-04 0.780E+03   -.877E-05 0.506E-05 0.404E+00   0.445E-07 -.310E-07 -.596E-03
   0.426E-04 0.376E-04 -.231E+04   -.230E-05 -.122E-03 0.231E+04   0.355E-04 -.205E-04 0.105E+00   0.682E-07 -.460E-07 -.568E-03
   -.104E-04 0.794E-05 0.231E+04   0.177E-03 0.496E-04 -.231E+04   -.355E-04 0.205E-04 -.105E+00   -.627E-07 0.444E-07 0.568E-03
   -.448E-03 0.267E-03 0.780E+03   0.554E-03 -.154E-03 -.780E+03   0.877E-05 -.506E-05 -.404E+00   -.593E-07 0.359E-07 0.595E-03
   0.488E-03 -.246E-03 -.780E+03   -.420E-03 0.152E-03 0.780E+03   -.877E-05 0.506E-05 0.404E+00   0.574E-07 -.271E-07 -.596E-03
   0.424E-04 0.277E-05 -.231E+04   0.136E-03 -.837E-05 0.231E+04   0.355E-04 -.205E-04 0.105E+00   0.656E-07 -.465E-07 -.568E-03
   -.173E-04 0.277E-04 0.231E+04   0.135E-03 -.527E-04 -.231E+04   -.355E-04 0.205E-04 -.105E+00   -.639E-07 0.424E-07 0.568E-03
   -.462E-03 0.296E-03 0.780E+03   0.659E-03 -.214E-03 -.780E+03   0.877E-05 -.506E-05 -.404E+00   -.595E-07 0.471E-07 0.595E-03
   0.493E-03 -.243E-03 -.780E+03   -.364E-03 0.172E-03 0.780E+03   -.877E-05 0.506E-05 0.404E+00   0.548E-07 -.291E-07 -.596E-03
   0.334E-04 0.161E-04 -.231E+04   0.999E-04 -.900E-04 0.231E+04   0.355E-04 -.205E-04 0.105E+00   0.654E-07 -.447E-07 -.568E-03
   0.872E-05 0.591E-04 0.231E+04   -.904E-04 -.848E-04 -.231E+04   -.355E-04 0.205E-04 -.105E+00   -.714E-07 0.376E-07 0.568E-03
   -.441E-03 0.283E-03 0.780E+03   0.329E-03 -.171E-03 -.780E+03   0.877E-05 -.506E-05 -.404E+00   -.533E-07 0.188E-07 0.595E-03
   0.487E-03 -.258E-03 -.780E+03   -.351E-03 0.292E-03 0.780E+03   -.877E-05 0.506E-05 0.404E+00   0.657E-07 -.321E-07 -.596E-03
   0.375E-04 0.250E-04 -.231E+04   -.546E-04 -.492E-04 0.231E+04   0.355E-04 -.205E-04 0.105E+00   0.722E-07 -.360E-07 -.568E-03
   -.192E-04 0.363E-04 0.231E+04   -.709E-04 0.168E-03 -.231E+04   -.355E-04 0.205E-04 -.105E+00   -.732E-07 0.380E-07 0.568E-03
   -.460E-03 0.337E-03 0.780E+03   0.328E-03 -.449E-03 -.780E+03   0.877E-05 -.506E-05 -.404E+00   -.560E-07 0.358E-07 0.595E-03
   0.471E-03 -.273E-03 -.780E+03   -.430E-03 0.435E-03 0.780E+03   -.877E-05 0.506E-05 0.404E+00   0.672E-07 -.337E-07 -.596E-03
   0.788E-05 0.864E-05 -.231E+04   -.294E-04 0.183E-03 0.231E+04   0.355E-04 -.205E-04 0.105E+00   0.728E-07 -.357E-07 -.568E-03
   -.199E-04 0.337E-04 0.231E+04   -.683E-04 0.177E-03 -.231E+04   -.355E-04 0.205E-04 -.105E+00   -.744E-07 0.354E-07 0.568E-03
   -.464E-03 0.314E-03 0.780E+03   0.339E-03 -.372E-03 -.780E+03   0.877E-05 -.506E-05 -.404E+00   -.574E-07 0.345E-07 0.595E-03
   0.460E-03 -.279E-03 -.780E+03   -.460E-03 0.454E-03 0.780E+03   -.877E-05 0.506E-05 0.404E+00   0.622E-07 -.401E-07 -.596E-03
   0.350E-05 -.180E-05 -.231E+04   -.151E-04 0.217E-03 0.231E+04   0.355E-04 -.205E-04 0.105E+00   0.736E-07 -.343E-07 -.568E-03
   0.378E-05 0.516E-04 0.231E+04   -.739E-04 -.604E-04 -.231E+04   -.355E-04 0.205E-04 -.105E+00   -.752E-07 0.368E-07 0.568E-03
   -.466E-03 0.288E-03 0.780E+03   0.411E-03 -.188E-03 -.780E+03   0.877E-05 -.506E-05 -.404E+00   -.574E-07 0.201E-07 0.595E-03
   0.475E-03 -.256E-03 -.780E+03   -.441E-03 0.284E-03 0.780E+03   -.877E-05 0.506E-05 0.404E+00   0.594E-07 -.365E-07 -.596E-03
   0.269E-04 0.156E-04 -.231E+04   -.198E-04 -.187E-04 0.231E+04   0.355E-04 -.205E-04 0.105E+00   0.728E-07 -.349E-07 -.568E-03
   0.189E-05 0.347E-04 0.231E+04   -.684E-04 -.582E-05 -.231E+04   -.355E-04 0.205E-04 -.105E+00   -.674E-07 0.434E-07 0.568E-03
   -.461E-03 0.248E-03 0.780E+03   0.396E-03 -.591E-04 -.780E+03   0.877E-05 -.506E-05 -.404E+00   -.633E-07 0.164E-07 0.595E-03
   0.451E-03 -.254E-03 -.780E+03   -.496E-03 0.279E-03 0.780E+03   -.877E-05 0.506E-05 0.404E+00   0.475E-07 -.464E-07 -.596E-03
   0.436E-04 0.152E-04 -.231E+04   -.742E-04 -.175E-04 0.231E+04   0.355E-04 -.205E-04 0.105E+00   0.679E-07 -.387E-07 -.568E-03
   -.298E-04 0.198E-04 0.231E+04   -.367E-04 0.221E-03 -.231E+04   -.355E-04 0.205E-04 -.105E+00   -.658E-07 0.409E-07 0.568E-03
   -.460E-03 0.299E-03 0.780E+03   0.462E-03 -.323E-03 -.780E+03   0.877E-05 -.506E-05 -.404E+00   -.596E-07 0.297E-07 0.595E-03
   0.437E-03 -.273E-03 -.780E+03   -.518E-03 0.437E-03 0.780E+03   -.877E-05 0.506E-05 0.404E+00   0.470E-07 -.488E-07 -.596E-03
   0.159E-04 -.116E-05 -.231E+04   -.553E-04 0.215E-03 0.231E+04   0.355E-04 -.205E-04 0.105E+00   0.669E-07 -.376E-07 -.568E-03
   -.324E-04 -.917E-05 0.231E+04   0.109E-03 0.316E-03 -.231E+04   -.355E-04 0.205E-04 -.105E+00   -.659E-07 0.426E-07 0.568E-03
   -.464E-03 0.287E-03 0.780E+03   0.602E-03 -.284E-03 -.780E+03   0.877E-05 -.506E-05 -.404E+00   -.563E-07 0.325E-07 0.595E-03
   0.444E-03 -.269E-03 -.780E+03   -.405E-03 0.423E-03 0.780E+03   -.877E-05 0.506E-05 0.404E+00   0.530E-07 -.398E-07 -.596E-03
   0.142E-04 -.274E-04 -.231E+04   0.876E-04 0.300E-03 0.231E+04   0.355E-04 -.205E-04 0.105E+00   0.660E-07 -.390E-07 -.568E-03
   -.250E-05 0.185E-04 0.231E+04   0.227E-03 0.473E-04 -.231E+04   -.355E-04 0.205E-04 -.105E+00   -.654E-07 0.441E-07 0.568E-03
   -.454E-03 0.236E-03 0.780E+03   0.631E-03 -.182E-04 -.780E+03   0.877E-05 -.506E-05 -.404E+00   -.554E-07 0.164E-07 0.595E-03
   0.474E-03 -.264E-03 -.780E+03   -.438E-03 0.311E-03 0.780E+03   -.877E-05 0.506E-05 0.404E+00   0.565E-07 -.407E-07 -.596E-03
   0.416E-04 0.204E-05 -.231E+04   0.213E-03 0.257E-04 0.231E+04   0.355E-04 -.205E-04 0.105E+00   0.664E-07 -.401E-07 -.568E-03
   0.687E-03 0.160E-02 0.544E-02   -.574E-12 -.103E-11 -.455E-12   0.190E-17 -.743E-17 0.341E-14   0.221E-09 0.543E-09 -.639E-05

 POSITION                                       TOTAL-FORCE (eV/Angst)
     -0.00002      0.00001      1.11585        -0.000060      0.000035     -0.004854
      2.63997      1.52422      3.55048        -0.000023      0.000013     -0.027170
      0.00003      3.04839      5.94592         0.000023     -0.000013      0.027170
      0.00002     -0.00001      8.38055         0.000060     -0.000035      0.004854
      9.23998      2.28632      1.11585        -0.000060      0.000035     -0.004854
      1.31997      3.81053      3.55048        -0.000023      0.000013     -0.027170
      1.32003      0.76209      5.94592         0.000023     -0.000013      0.027170
     -1.31998      2.28629      8.38055         0.000060     -0.000035      0.004854
      1.31998      2.28632      1.11585        -0.000060      0.000035     -0.004854
     -1.32003      3.81053      3.55048        -0.000023      0.000013     -0.027170
      3.96003      0.76209      5.94592         0.000023     -0.000013      0.027170
      1.32002      2.28629      8.38055         0.000060     -0.000035      0.004854
      2.63998      0.00001      1.11585        -0.000060      0.000035     -0.004854
     -0.00003      1.52422      3.55048        -0.000023      0.000013     -0.027170
      2.64003      3.04839      5.94592         0.000023     -0.000013      0.027170
      2.64002     -0.00001      8.38055         0.000060     -0.000035      0.004854
      5.27998      0.00001      1.11585        -0.000060      0.000035     -0.004854
      7.91997      1.52422      3.55048        -0.000023      0.000013     -0.027170
      5.28003      3.04839      5.94592         0.000023     -0.000013      0.027170
      5.28002     -0.00001      8.38055         0.000060     -0.000035      0.004854
      3.95998      2.28632      1.11585        -0.000060      0.000035     -0.004854
      6.59997      3.81053      3.55048        -0.000023      0.000013     -0.027170
      6.60003      0.76209      5.94592         0.000023     -0.000013      0.027170
      3.96002      2.28629      8.38055         0.000060     -0.000035      0.004854
      6.59998      2.28632      1.11585        -0.000060      0.000035     -0.004854
      3.95997      3.81053      3.55048        -0.000023      0.000013     -0.027170
      9.24003      0.76209      5.94592         0.000023     -0.000013      0.027170
      6.60002      2.28629      8.38055         0.000060     -0.000035      0.004854
      7.91998      0.00001      1.11585        -0.000060      0.000035     -0.004854
      5.27997      1.52422      3.55048        -0.000023      0.000013     -0.027170
      7.92003      3.04839      5.94592         0.000023     -0.000013      0.027170
      7.92002     -0.00001      8.38055         0.000060     -0.000035      0.004854
      7.91998      4.57263      1.11585        -0.000060      0.000035     -0.004854
     -0.00003      6.09683      3.55048        -0.000023      0.000013     -0.027170
     -2.63997      7.62101      5.94592         0.000023     -0.000013      0.027170
     -2.63998      4.57260      8.38055         0.000060     -0.000035      0.004854
      6.59998      6.85894      1.11585        -0.000060      0.000035     -0.004854
     -1.32003      8.38314      3.55048        -0.000023      0.000013     -0.027170
     -1.31997      5.33470      5.94592         0.000023     -0.000013      0.027170
     -3.95998      6.85891      8.38055         0.000060     -0.000035      0.004854
     -1.32002      6.85894      1.11585        -0.000060      0.000035     -0.004854
     -3.96003      8.38314      3.55048        -0.000023      0.000013     -0.027170
      1.32003      5.33470      5.94592         0.000023     -0.000013      0.027170
     -1.31998      6.85891      8.38055         0.000060     -0.000035      0.004854
     -0.00002      4.57263      1.11585        -0.000060      0.000035     -0.004854
     -2.64003      6.09683      3.55048        -0.000023      0.000013     -0.027170
      0.00003      7.62101      5.94592         0.000023     -0.000013      0.027170
      0.00002      4.57260      8.38055         0.000060     -0.000035      0.004854
      2.63998      4.57263      1.11585        -0.000060      0.000035     -0.004854
      5.27997      6.09683      3.55048        -0.000023      0.000013     -0.027170
      2.64003      7.62101      5.94592         0.000023     -0.000013      0.027170
      2.64002      4.57260      8.38055         0.000060     -0.000035      0.004854
      1.31998      6.85894      1.11585        -0.000060      0.000035     -0.004854
      3.95997      8.38314      3.55048        -0.000023      0.000013     -0.027170
      3.96003      5.33470      5.94592         0.000023     -0.000013      0.027170
      1.32002      6.85891      8.38055         0.000060     -0.000035      0.004854
      3.95998      6.85894      1.11585        -0.000060      0.000035     -0.004854
      1.31997      8.38314      3.55048        -0.000023      0.000013     -0.027170
      6.60003      5.33470      5.94592         0.000023     -0.000013      0.027170
      3.96002      6.85891      8.38055         0.000060     -0.000035      0.004854
      5.27998      4.57263      1.11585        -0.000060      0.000035     -0.004854
      2.63997      6.09683      3.55048        -0.000023      0.000013     -0.027170
      5.28003      7.62101      5.94592         0.000023     -0.000013      0.027170
      5.28002      4.57260      8.38055         0.000060     -0.000035      0.004854
    total drift:                                0.000687      0.001605      0.005433

  FREE ENERGIE OF THE ION-ELECTRON SYSTEM (eV)
  free  energy   TOTEN  =      -405.08632054 eV

  energy  without entropy=     -405.07032360  energy(sigma->0) =     -405.08098823

 d Force = 0.3971175E-01[ 0.127E-01, 0.667E-01]  d Energy = 0.3800046E-01 0.171E-02
 d Force = 0.1687681E+04[ 0.168E+04, 0.169E+04]  d Ewald  = 0.1687682E+04-0.756E-03

 reached required accuracy - stopping structural energy minimisation