 vasp.5.4.4.18Apr17-6-g9f103f2a35 (build Nov 30 2020 22:55:02) complex

 executed on             LinuxIFC date 2023.09.09  20:33:58

 INCAR:
 POTCAR:    PAW_PBE Cu 22Jun2005
 POTCAR:    PAW_PBE Pt 04Feb2005
 POTCAR:    PAW_PBE Cu 22Jun2005
   VRHFIN =Cu: d10 p1

   TITEL  = PAW_PBE Cu 22Jun2005
   POMASS =   63.546; ZVAL   =   11.000    mass and valenz
   ENMAX  =  295.446; ENMIN  =  221.585 eV

 POTCAR:    PAW_PBE Pt 04Feb2005
   VRHFIN =Pt: s1d9

   TITEL  = PAW_PBE Pt 04Feb2005
   POMASS =  195.080; ZVAL   =   10.000    mass and valenz
   ENMAX  =  230.283; ENMIN  =  172.712 eV

 Optimization of the real space projectors (new method)

 maximal supplied QI-value         = 16.25
 optimisation between [QCUT,QGAM] = [ 11.86, 23.89] = [ 39.41,159.82] Ry
 Optimized for a Real-space Cutoff    1.49 Angstroem

   l    n(q)    QCUT    max X(q) W(low)/X(q) W(high)/X(q)  e(spline)
   2     10    11.864     4.610    0.10E-03    0.20E-03    0.29E-06
   2     10    11.864     8.522    0.17E-03    0.33E-03    0.50E-06
   0     11    11.864    51.609    0.52E-04    0.55E-04    0.33E-06
   0     11    11.864    27.747    0.46E-04    0.52E-04    0.31E-06
   1     10    11.864    20.408    0.54E-04    0.25E-04    0.21E-06
   1     10    11.864    13.425    0.48E-04    0.22E-04    0.18E-06
 Optimization of the real space projectors (new method)

 maximal supplied QI-value         = 14.36
 optimisation between [QCUT,QGAM] = [ 11.92, 23.98] = [ 39.79,161.09] Ry
 Optimized for a Real-space Cutoff    1.49 Angstroem

   l    n(q)    QCUT    max X(q) W(low)/X(q) W(high)/X(q)  e(spline)
   2     10    11.920    66.195    0.79E-04    0.18E-03    0.24E-06
   2     10    11.920    64.643    0.81E-04    0.19E-03    0.24E-06
   0     11    11.920    95.520    0.28E-04    0.54E-04    0.18E-06
   0     11    11.920    63.403    0.27E-04    0.52E-04    0.17E-06
   1     10    11.920    19.961    0.18E-04    0.11E-03    0.23E-06
   1     10    11.920    13.289    0.25E-04    0.87E-04    0.19E-06
  PAW_PBE Cu 22Jun2005                  :
  PAW_PBE Pt 04Feb2005                  :

 POSCAR: PtM\(2)
  positions in direct lattice
  velocities in cartesian coordinates
 exchange correlation table for  LEXCH =        8
   RHO(1)=    0.500       N(1)  =     2000
   RHO(2)=  100.500       N(2)  =     4000

 ion  position               nearest neighbor table
   1  0.785  0.869  0.311-  55 2.42  20 2.42  39 2.42  65 2.63  73 2.63  72 2.63  40 2.64   3 2.64
                             2 2.64  57 2.64  56 2.64  29 2.64
   2  0.035  0.869  0.311-  49 2.42  39 2.42  52 2.42  67 2.63  77 2.63  65 2.63  41 2.64   1 2.64
                            33 2.64   3 2.64  23 2.64  56 2.64
   3  0.035  0.619  0.311-  39 2.42  12 2.42  60 2.42  77 2.63  66 2.63  73 2.64  15 2.64   1 2.64
                            41 2.64  40 2.64   2 2.64   9 2.64
   4  0.787  0.868  0.051-  21 2.41  62 2.41  19 2.41   5 2.64   6 2.64  42 2.64  59 2.64  58 2.64
                            30 2.64
   5  0.037  0.868  0.051-  54 2.41  35 2.41  62 2.41  58 2.64  24 2.64   4 2.64  43 2.64   6 2.64
                            34 2.64
   6  0.037  0.618  0.051-  32 2.41  54 2.41  21 2.41  43 2.64  10 2.64  18 2.64   4 2.64  42 2.64
                             5 2.64
   7  0.620  0.202  0.136-  28 2.41  30 2.41  58 2.41  55 2.49  63 2.50  64 2.51  62 2.64  11 2.64
                            37 2.64  19 2.64  45 2.64  22 2.64
   8  0.370  0.952  0.136-  16 2.41  24 2.41  59 2.41  50 2.50  53 2.50  26 2.51  38 2.64  25 2.64
                            44 2.64  19 2.64  37 2.64  35 2.64
   9  0.035  0.369  0.311-  12 2.42  61 2.42  46 2.42  71 2.63  66 2.63  68 2.64  33 2.64  15 2.64
                            40 2.64   3 2.64  13 2.64  47 2.64
  10  0.037  0.368  0.051-  38 2.41  32 2.41  31 2.41   6 2.64  48 2.64  34 2.64  18 2.64  42 2.64
                            16 2.64
  11  0.870  0.202  0.136-  48 2.41  58 2.41  34 2.41  49 2.49  61 2.50  63 2.51  35 2.64   7 2.64
                            22 2.64  38 2.64  31 2.64  62 2.64
  12  0.952  0.536  0.226-   9 2.42   3 2.42  40 2.42  21 2.50  31 2.50  32 2.50  39 2.64  20 2.64
                            61 2.64  51 2.64  46 2.64  60 2.64
  13  0.285  0.119  0.311-  46 2.42  26 2.42  53 2.42  69 2.63  74 2.63  71 2.64  23 2.64  15 2.64
                            29 2.64  33 2.64  57 2.64   9 2.64
  14  0.535  0.619  0.311-  36 2.42  50 2.42  51 2.42  80 2.63  76 2.63  75 2.63  23 2.64  47 2.64
                            41 2.64  57 2.64  27 2.64  40 2.64
  15  0.285  0.369  0.311-  46 2.42  60 2.42  64 2.42  74 2.63  79 2.63  66 2.64   3 2.64   9 2.64
                            13 2.64  29 2.64  41 2.64  27 2.64
  16  0.287  0.118  0.051-   8 2.41  37 2.41  38 2.41  18 2.64  30 2.64  59 2.64  34 2.64  10 2.64
                            24 2.64
  17  0.536  0.618  0.051-  22 2.41  25 2.41  44 2.41  43 2.64  28 2.64  24 2.64  59 2.64  48 2.64
                            42 2.64
  18  0.287  0.368  0.051-  37 2.41  45 2.41  32 2.41  16 2.64   6 2.64  43 2.64  10 2.64  28 2.64
                            30 2.64
  19  0.620  0.952  0.136-  30 2.41  59 2.41   4 2.41  20 2.50  55 2.50  53 2.51  62 2.64  21 2.64
                            37 2.64   7 2.64  25 2.64   8 2.64
  20  0.702  0.786  0.226-  40 2.42   1 2.42  57 2.42  19 2.50  25 2.50  21 2.51  50 2.64  51 2.64
                            12 2.64  55 2.64  53 2.64  39 2.64
  21  0.870  0.702  0.136-   4 2.41  42 2.41   6 2.41  12 2.50  39 2.50  20 2.51  31 2.64  19 2.64
                            62 2.64  25 2.64  32 2.64  54 2.64
  22  0.620  0.452  0.136-  17 2.41  28 2.41  48 2.41  63 2.49  51 2.50  36 2.51  31 2.64  25 2.64
                            45 2.64  11 2.64  44 2.64   7 2.64
  23  0.285  0.869  0.311-  26 2.42  52 2.42  50 2.42  69 2.63  75 2.63  67 2.64  14 2.64  13 2.64
                            57 2.64   2 2.64  33 2.64  41 2.64
  24  0.286  0.868  0.051-  44 2.41   8 2.41  35 2.41  34 2.64   5 2.64  17 2.64  43 2.64  59 2.64
                            16 2.64
  25  0.620  0.702  0.136-  59 2.41  17 2.41  42 2.41  51 2.50  20 2.50  50 2.51  22 2.64  31 2.64
                             8 2.64  44 2.64  19 2.64  21 2.64
  26  0.202  0.036  0.226-  23 2.42  13 2.42  33 2.42  38 2.49  35 2.50   8 2.51  53 2.64  52 2.64
                            46 2.64  50 2.64  49 2.64  61 2.64
  27  0.535  0.369  0.311-  64 2.42  36 2.42  63 2.42  78 2.63  76 2.63  79 2.63  41 2.64  29 2.64
                            47 2.64  15 2.64  14 2.64  56 2.64
  28  0.537  0.368  0.051-   7 2.41  22 2.41  45 2.41  30 2.64  58 2.64  17 2.64  18 2.64  48 2.64
                            43 2.64
  29  0.535  0.119  0.311-  64 2.42  53 2.42  55 2.42  78 2.63  72 2.63  74 2.63  27 2.64  13 2.64
                            15 2.64  57 2.64  56 2.64   1 2.64
  30  0.537  0.118  0.051-  19 2.41   7 2.41  37 2.41  28 2.64  16 2.64  59 2.64  58 2.64  18 2.64
                             4 2.64
  31  0.870  0.452  0.136-  42 2.41  48 2.41  10 2.41  61 2.50  12 2.50  51 2.51  22 2.64  21 2.64
                            25 2.64  11 2.64  32 2.64  38 2.64
  32  0.120  0.452  0.136-   6 2.41  10 2.41  18 2.41  46 2.49  60 2.50  12 2.50  38 2.64  54 2.64
                            21 2.64  37 2.64  45 2.64  31 2.64
  33  0.035  0.119  0.311-  61 2.42  49 2.42  26 2.42  67 2.63  71 2.63  70 2.63   9 2.64   2 2.64
                            56 2.64  13 2.64  47 2.64  23 2.64
  34  0.037  0.118  0.051-  35 2.41  38 2.41  11 2.41  24 2.64  10 2.64  48 2.64  16 2.64  58 2.64
                             5 2.64
  35  0.120  0.952  0.136-  34 2.41   5 2.41  24 2.41  52 2.50  26 2.50  49 2.50  11 2.64  38 2.64
                            54 2.64  44 2.64   8 2.64  62 2.64
  36  0.452  0.536  0.226-  27 2.42  14 2.42  41 2.42  44 2.50  45 2.50  22 2.51  52 2.64  51 2.64
                            63 2.64  50 2.64  60 2.64  64 2.64
  37  0.370  0.202  0.136-  18 2.41  16 2.41  30 2.41  53 2.49  64 2.50  46 2.51   7 2.64  19 2.64
                             8 2.64  45 2.64  32 2.64  38 2.64
  38  0.120  0.202  0.136-  10 2.41  34 2.41  16 2.41  26 2.49  46 2.50  61 2.51   8 2.64  35 2.64
                            32 2.64  11 2.64  37 2.64  31 2.64
  39  0.952  0.786  0.226-   3 2.42   2 2.42   1 2.42  62 2.50  21 2.50  54 2.50  60 2.64  12 2.64
                            49 2.64  52 2.64  55 2.64  20 2.64
  40  0.785  0.619  0.311-  20 2.42  51 2.42  12 2.42  73 2.63  68 2.63  80 2.64   1 2.64  57 2.64
                             3 2.64   9 2.64  14 2.64  47 2.64
  41  0.285  0.619  0.311-  60 2.42  52 2.42  36 2.42  79 2.63  75 2.63  77 2.64  27 2.64   2 2.64
                             3 2.64  14 2.64  15 2.64  23 2.64
  42  0.787  0.618  0.051-  31 2.41  21 2.41  25 2.41  48 2.64  10 2.64   4 2.64   6 2.64  59 2.64
                            17 2.64
  43  0.287  0.618  0.051-  45 2.41  44 2.41  54 2.41   6 2.64  18 2.64  17 2.64   5 2.64  24 2.64
                            28 2.64
  44  0.370  0.702  0.136-  24 2.41  43 2.41  17 2.41  36 2.50  50 2.50  52 2.51  54 2.64  25 2.64
                            45 2.64   8 2.64  35 2.64  22 2.64
  45  0.370  0.452  0.136-  43 2.41  18 2.41  28 2.41  64 2.49  36 2.50  60 2.51  22 2.64  44 2.64
                            37 2.64   7 2.64  54 2.64  32 2.64
  46  0.202  0.286  0.226-  15 2.42  13 2.42   9 2.42  32 2.49  38 2.50  37 2.51  53 2.64  64 2.64
                            26 2.64  12 2.64  61 2.64  60 2.64
  47  0.785  0.369  0.311-  51 2.42  63 2.42  61 2.42  70 2.63  68 2.63  76 2.63  56 2.64  27 2.64
                            14 2.64   9 2.64  33 2.64  40 2.64
  48  0.787  0.368  0.051-  11 2.41  31 2.41  22 2.41  10 2.64  42 2.64  34 2.64  58 2.64  28 2.64
                            17 2.64
  49  0.952  0.036  0.226-   2 2.42  33 2.42  56 2.42  11 2.49  62 2.50  35 2.50  39 2.64  55 2.64
                            61 2.64  26 2.64  52 2.64  63 2.64
  50  0.452  0.786  0.226-  14 2.42  57 2.42  23 2.42   8 2.50  44 2.50  25 2.51  51 2.64  20 2.64
                            52 2.64  36 2.64  53 2.64  26 2.64
  51  0.702  0.536  0.226-  47 2.42  40 2.42  14 2.42  25 2.50  22 2.50  31 2.51  50 2.64  20 2.64
                            36 2.64  12 2.64  63 2.64  61 2.64
  52  0.202  0.786  0.226-  41 2.42  23 2.42   2 2.42  35 2.50  54 2.50  44 2.51  36 2.64  50 2.64
                            26 2.64  60 2.64  39 2.64  49 2.64
  53  0.452  0.036  0.226-  57 2.42  29 2.42  13 2.42  37 2.49   8 2.50  19 2.51  46 2.64  26 2.64
                            55 2.64  50 2.64  20 2.64  64 2.64
  54  0.120  0.702  0.136-   5 2.41   6 2.41  43 2.41  60 2.50  52 2.50  39 2.50  44 2.64  35 2.64
                            32 2.64  62 2.64  21 2.64  45 2.64
  55  0.702  0.036  0.226-   1 2.42  56 2.42  29 2.42   7 2.49  19 2.50  62 2.51  53 2.64  20 2.64
                            49 2.64  64 2.64  63 2.64  39 2.64
  56  0.785  0.119  0.311-  63 2.42  55 2.42  49 2.42  65 2.63  70 2.63  78 2.63  47 2.64  33 2.64
                            29 2.64   1 2.64  27 2.64   2 2.64
  57  0.535  0.869  0.311-  53 2.42  50 2.42  20 2.42  72 2.63  80 2.63  69 2.64  23 2.64  40 2.64
[...]

 FORCES acting on ions
    electron-ion (+dipol)            ewald-force                    non-local-force                 convergence-correction
   -.189E+00 -.734E-01 -.216E+04   0.196E+00 0.735E-01 0.215E+04   -.576E-02 0.532E-02 0.189E+01   0.104E-02 -.563E-02 0.288E-02
   -.383E-01 -.304E-01 -.216E+04   0.522E-01 0.163E-01 0.215E+04   -.106E-01 0.454E-02 0.189E+01   -.126E-02 0.842E-02 0.108E-02
   -.274E-01 0.302E+00 -.216E+04   0.530E-01 -.293E+00 0.215E+04   -.104E-01 0.427E-02 0.189E+01   -.147E-01 -.169E-01 0.197E-01
   -.192E+00 -.655E-02 0.390E+04   0.181E+00 0.159E-01 -.389E+04   0.579E-02 -.366E-02 -.307E+01   0.270E-02 -.342E-02 -.481E-02
   0.293E+00 -.202E+00 0.390E+04   -.302E+00 0.207E+00 -.389E+04   -.382E-03 0.133E-02 -.307E+01   0.432E-02 -.232E-02 -.416E-02
   0.176E+00 -.885E-01 0.390E+04   -.183E+00 0.979E-01 -.389E+04   0.131E-02 -.190E-02 -.307E+01   0.261E-02 -.465E-02 -.303E-02
   -.209E+00 0.272E+00 0.190E+04   0.210E+00 -.275E+00 -.190E+04   0.757E-02 -.624E-02 -.121E+01   -.294E-02 0.470E-02 0.540E-01
   -.912E-01 -.475E-01 0.190E+04   0.964E-01 0.436E-01 -.190E+04   0.468E-02 -.277E-02 -.121E+01   -.546E-02 0.376E-02 0.544E-01
   -.281E+00 -.803E-01 -.216E+04   0.299E+00 0.711E-01 0.215E+04   -.105E-01 0.468E-02 0.189E+01   -.545E-02 0.404E-02 0.366E-01
   0.175E+00 -.136E+00 0.390E+04   -.182E+00 0.141E+00 -.389E+04   -.962E-03 0.118E-02 -.307E+01   0.358E-02 -.272E-02 -.162E-02
   -.519E-01 0.181E+00 0.190E+04   0.514E-01 -.184E+00 -.190E+04   0.337E-02 -.486E-02 -.121E+01   0.116E-02 0.455E-02 0.571E-01
   0.699E-01 -.336E-01 -.134E+03   -.665E-01 0.400E-01 0.134E+03   -.132E-01 0.743E-02 -.290E+00   0.471E-02 -.104E-01 0.263E-01
   0.662E-01 -.908E-01 -.216E+04   -.362E-01 0.634E-01 0.215E+04   -.117E-01 0.574E-02 0.189E+01   -.179E-01 0.204E-01 0.257E-01
   0.697E-01 0.270E+00 -.216E+04   -.687E-01 -.265E+00 0.215E+04   -.121E-01 0.416E-02 0.189E+01   0.113E-01 -.116E-01 -.174E-02
   0.253E+00 -.846E-01 -.216E+04   -.215E+00 0.736E-01 0.215E+04   -.149E-01 0.478E-02 0.189E+01   -.245E-01 0.526E-02 0.727E-02
   0.832E-01 -.316E+00 0.390E+04   -.910E-01 0.318E+00 -.389E+04   0.363E-02 0.242E-02 -.307E+01   0.101E-02 -.112E-02 -.267E-02
   0.224E+00 -.497E-02 0.390E+04   -.232E+00 0.117E-01 -.389E+04   -.251E-02 0.357E-03 -.307E+01   0.508E-02 -.401E-02 -.403E-02
   0.381E+00 -.955E-01 0.390E+04   -.384E+00 0.989E-01 -.389E+04   -.467E-02 0.183E-02 -.307E+01   0.201E-02 -.172E-02 -.386E-02
   -.367E+00 -.333E-01 0.190E+04   0.369E+00 0.320E-01 -.190E+04   0.761E-02 -.173E-02 -.121E+01   -.452E-02 0.725E-03 0.537E-01
   0.433E-01 -.142E+00 -.133E+03   -.418E-01 0.147E+00 0.133E+03   -.147E-01 0.841E-02 -.287E+00   0.713E-02 -.807E-02 0.157E-01
   -.208E+00 -.261E-01 0.190E+04   0.209E+00 0.283E-01 -.190E+04   0.545E-02 -.172E-02 -.121E+01   -.267E-02 -.224E-02 0.560E-01
   -.191E+00 0.238E+00 0.190E+04   0.189E+00 -.237E+00 -.190E+04   0.721E-02 -.488E-02 -.121E+01   -.595E-03 0.122E-02 0.551E-01
   0.756E-01 -.197E+00 -.216E+04   -.554E-01 0.172E+00 0.215E+04   -.755E-02 0.605E-02 0.189E+01   -.110E-01 0.189E-01 -.186E-02
   0.494E+00 -.200E+00 0.390E+04   -.499E+00 0.203E+00 -.389E+04   -.491E-02 -.944E-04 -.307E+01   0.359E-02 -.575E-03 -.392E-02
   -.249E+00 0.118E+00 0.190E+04   0.249E+00 -.116E+00 -.190E+04   0.656E-02 -.427E-02 -.121E+01   -.231E-02 -.272E-03 0.547E-01
   0.221E+00 -.180E+00 -.133E+03   -.214E+00 0.170E+00 0.134E+03   -.124E-01 0.889E-02 -.287E+00   0.289E-03 0.483E-02 0.191E-01
   -.194E-02 0.131E-01 -.216E+04   0.863E-02 -.191E-01 0.215E+04   -.128E-01 0.488E-02 0.189E+01   0.627E-02 0.733E-03 -.356E-02
   0.170E+00 0.160E+00 0.390E+04   -.178E+00 -.154E+00 -.389E+04   -.348E-03 -.293E-02 -.307E+01   0.448E-02 -.107E-02 -.463E-02
   -.769E-01 -.987E-02 -.216E+04   0.934E-01 -.165E-02 0.215E+04   -.105E-01 0.773E-02 0.189E+01   -.488E-02 0.281E-02 0.568E-02
   0.127E+00 -.180E+00 0.390E+04   -.133E+00 0.184E+00 -.389E+04   -.222E-02 0.323E-02 -.307E+01   0.288E-02 -.290E-02 -.494E-02
   -.826E-01 0.114E-01 0.190E+04   0.833E-01 -.115E-01 -.190E+04   0.281E-02 0.567E-03 -.121E+01   -.352E-03 -.184E-02 0.578E-01
   -.114E+00 0.919E-01 0.190E+04   0.119E+00 -.928E-01 -.190E+04   0.562E-02 -.333E-02 -.121E+01   -.699E-02 0.109E-02 0.575E-01
   -.263E-01 0.158E+00 -.216E+04   0.353E-01 -.183E+00 0.215E+04   -.120E-01 0.498E-02 0.189E+01   0.385E-02 0.182E-01 0.236E-01
   0.207E+00 -.153E+00 0.390E+04   -.216E+00 0.157E+00 -.389E+04   0.176E-02 0.908E-03 -.307E+01   0.396E-02 -.113E-02 -.310E-02
   0.329E-01 -.860E-01 0.190E+04   -.306E-01 0.795E-01 -.190E+04   0.453E-02 0.712E-03 -.121E+01   -.289E-02 0.410E-02 0.552E-01
   0.182E+00 0.460E-01 -.133E+03   -.180E+00 -.453E-01 0.134E+03   -.126E-01 0.769E-02 -.288E+00   0.552E-02 -.569E-02 0.128E-01
   -.174E+00 0.470E-01 0.190E+04   0.181E+00 -.519E-01 -.190E+04   0.509E-02 -.310E-02 -.121E+01   -.723E-02 0.516E-02 0.554E-01
   -.363E-01 0.150E+00 0.190E+04   0.407E-01 -.154E+00 -.190E+04   0.446E-02 -.672E-02 -.121E+01   -.494E-02 0.689E-02 0.580E-01
   0.678E-01 -.172E+00 -.133E+03   -.642E-01 0.175E+00 0.134E+03   -.114E-01 0.890E-02 -.289E+00   0.344E-02 -.727E-02 0.179E-01
   -.347E+00 0.168E+00 -.216E+04   0.346E+00 -.153E+00 0.215E+04   -.560E-02 0.595E-02 0.189E+01   0.993E-02 -.222E-01 0.312E-01
   0.219E+00 0.203E+00 -.216E+04   -.191E+00 -.206E+00 0.215E+04   -.148E-01 0.224E-02 0.189E+01   -.130E-01 -.132E-02 0.766E-02
   -.249E+00 0.680E-01 0.390E+04   0.237E+00 -.590E-01 -.389E+04   0.571E-02 -.188E-02 -.307E+01   0.305E-02 -.447E-02 -.297E-02
   0.333E+00 -.144E+00 0.390E+04   -.341E+00 0.150E+00 -.389E+04   0.644E-03 0.617E-03 -.307E+01   0.220E-02 -.334E-02 -.370E-02
   0.294E-01 0.393E-01 0.190E+04   -.266E-01 -.412E-01 -.190E+04   0.384E-02 -.285E-02 -.121E+01   -.284E-02 0.251E-02 0.533E-01
   -.634E-01 0.146E+00 0.190E+04   0.680E-01 -.148E+00 -.190E+04   0.612E-02 -.222E-02 -.121E+01   -.582E-02 0.152E-02 0.542E-01
   0.427E-01 -.149E+00 -.134E+03   -.324E-01 0.143E+00 0.134E+03   -.984E-02 0.803E-02 -.289E+00   -.433E-02 0.198E-02 0.248E-01
   0.122E+00 0.117E+00 -.216E+04   -.130E+00 -.120E+00 0.215E+04   -.139E-01 0.178E-02 0.189E+01   0.199E-01 -.461E-03 0.203E-01
   -.187E+00 0.183E+00 0.390E+04   0.172E+00 -.176E+00 -.389E+04   0.767E-02 -.314E-02 -.307E+01   0.437E-02 -.179E-02 -.346E-02
   0.134E+00 -.409E-02 -.133E+03   -.136E+00 -.247E-02 0.134E+03   -.103E-01 0.714E-02 -.289E+00   0.844E-02 0.177E-02 0.200E-01
   0.135E+00 -.650E-01 -.133E+03   -.133E+00 0.630E-01 0.134E+03   -.128E-01 0.616E-02 -.289E+00   0.552E-02 -.122E-02 0.121E-01
   0.814E-01 0.219E-01 -.133E+03   -.850E-01 -.174E-01 0.133E+03   -.117E-01 0.748E-02 -.286E+00   0.102E-01 -.908E-02 0.183E-01
   0.267E+00 -.152E+00 -.133E+03   -.260E+00 0.147E+00 0.133E+03   -.126E-01 0.792E-02 -.287E+00   0.707E-03 0.110E-02 0.135E-01
   0.590E-01 -.262E+00 -.133E+03   -.523E-01 0.257E+00 0.133E+03   -.118E-01 0.966E-02 -.288E+00   0.610E-03 -.123E-02 0.147E-01
   0.415E-01 -.393E-01 0.190E+04   -.370E-01 0.379E-01 -.190E+04   0.394E-02 -.139E-02 -.121E+01   -.492E-02 0.929E-03 0.552E-01
   0.540E-02 -.112E+00 -.133E+03   -.482E-02 0.111E+00 0.133E+03   -.106E-01 0.843E-02 -.287E+00   0.552E-02 -.420E-02 0.142E-01
   -.174E-01 0.755E-01 -.216E+04   0.154E-01 -.876E-01 0.215E+04   -.954E-02 0.573E-02 0.189E+01   0.125E-01 0.524E-02 0.237E-01
   -.108E+00 -.138E+00 -.216E+04   0.117E+00 0.129E+00 0.215E+04   -.886E-02 0.539E-02 0.190E+01   0.158E-02 0.269E-02 -.121E-01
   0.573E-01 0.245E-01 0.389E+04   -.678E-01 -.194E-01 -.389E+04   0.276E-03 -.592E-04 -.307E+01   0.605E-02 -.187E-02 -.371E-02
   -.100E+00 -.274E+00 0.390E+04   0.902E-01 0.278E+00 -.389E+04   0.430E-02 0.327E-02 -.307E+01   0.267E-02 -.323E-02 -.576E-02
   0.206E+00 -.307E-01 -.134E+03   -.195E+00 0.323E-01 0.134E+03   -.118E-01 0.849E-02 -.289E+00   -.425E-02 -.667E-02 0.199E-01
[...]
   -.180E+00 -.177E+00 -.350E+04   0.171E+00 0.142E+00 0.350E+04   0.466E-02 0.449E-03 0.160E+01   0.817E-02 0.373E-01 -.545E-02
   -.278E+00 -.655E+00 -.350E+04   0.248E+00 0.633E+00 0.350E+04   0.957E-02 0.139E-01 0.160E+01   0.278E-01 0.238E-01 -.622E-02
   0.174E+00 -.847E+00 -.350E+04   -.149E+00 0.781E+00 0.350E+04   -.504E-02 0.205E-01 0.159E+01   -.253E-01 0.661E-01 -.331E-02
   0.309E+00 0.497E+00 -.350E+04   -.312E+00 -.486E+00 0.350E+04   -.389E-02 -.135E-01 0.160E+01   0.179E-02 -.948E-02 -.256E-02
   -.607E+00 0.493E+00 -.350E+04   0.593E+00 -.497E+00 0.350E+04   0.214E-01 -.163E-01 0.160E+01   0.112E-01 0.621E-02 -.361E-02
   -.303E+00 -.283E+00 -.350E+04   0.282E+00 0.261E+00 0.350E+04   0.876E-02 0.164E-02 0.159E+01   0.182E-01 0.222E-01 -.553E-02
   0.329E+00 0.712E+00 -.350E+04   -.308E+00 -.643E+00 0.350E+04   -.108E-01 -.187E-01 0.160E+01   -.207E-01 -.670E-01 -.398E-02
   0.424E+00 0.419E+00 -.350E+04   -.376E+00 -.406E+00 0.350E+04   -.611E-02 -.151E-01 0.160E+01   -.503E-01 -.949E-02 -.278E-02
   0.447E+00 0.478E+00 -.350E+04   -.417E+00 -.459E+00 0.350E+04   -.422E-02 -.140E-01 0.159E+01   -.333E-01 -.182E-01 -.478E-02
   -.145E+00 -.109E+00 -.350E+04   0.114E+00 0.110E+00 0.350E+04   0.764E-02 0.736E-03 0.159E+01   0.314E-01 -.898E-03 -.421E-02
   -.571E+00 0.659E+00 -.350E+04   0.562E+00 -.625E+00 0.350E+04   0.200E-01 -.185E-01 0.160E+01   0.645E-02 -.340E-01 -.296E-02
   -.580E+00 0.642E+00 -.350E+04   0.545E+00 -.604E+00 0.350E+04   0.207E-01 -.191E-01 0.160E+01   0.330E-01 -.353E-01 -.611E-02
   0.377E-01 -.741E+00 -.350E+04   -.194E-01 0.707E+00 0.350E+04   0.460E-02 0.176E-01 0.160E+01   -.208E-01 0.340E-01 -.260E-02
   -.647E+00 0.696E+00 -.350E+04   0.600E+00 -.637E+00 0.350E+04   0.208E-01 -.193E-01 0.159E+01   0.451E-01 -.585E-01 -.290E-02
   0.156E+00 -.864E-01 0.161E+02   0.228E-12 -.683E-12 0.146E-10   -.165E+00 0.100E+00 -.173E+02   0.212E-01 -.130E-01 0.124E+01

 POSITION                                       TOTAL-FORCE (eV/Angst)
     12.87799      7.94788      6.92168         0.003001     -0.000662     -0.004319
      4.95834      7.94807      6.92160         0.002652     -0.001511     -0.004701
      3.63864      5.66185      6.92164         0.001207     -0.003574     -0.001889
     12.88772      7.94133      0.98786        -0.003078      0.002411      0.016753
      4.96828      7.94090      0.98788        -0.005055      0.003930      0.016616
      3.64811      5.65491      0.98789        -0.004270      0.002988      0.016495
      7.60345      1.84766      2.97612         0.005019     -0.003750     -0.019720
      8.92360      8.70642      2.97615         0.004492     -0.003086     -0.020031
      2.31862      3.37531      6.92156         0.002421     -0.000881     -0.002581
      2.32840      3.36855      0.98789        -0.005088      0.003658      0.016287
     10.24366      1.84749      2.97631         0.004098     -0.002734     -0.020453
     12.88316      4.89635      4.94988        -0.005378      0.003511      0.000483
      3.63874      1.08888      6.92153         0.001004     -0.001692      0.001507
      8.91880      5.66187      6.92155         0.000759     -0.003044     -0.001640
      4.95926      3.37531      6.92162        -0.001389     -0.001346     -0.002785
      3.64790      1.08225      0.98791        -0.003614      0.003749      0.016193
      8.92836      5.65491      0.98749        -0.005481      0.003235      0.016890
      4.96868      3.36845      0.98773        -0.006338      0.003659      0.017109
     11.56329      8.70620      2.97600         0.005394     -0.002463     -0.019700
     11.56319      7.18257      4.94948        -0.006333      0.004717      0.001760
     12.88367      6.41974      2.97616         0.004349     -0.001914     -0.019912
      8.92348      4.13384      2.97614         0.004965     -0.003070     -0.020061
      7.59834      7.94785      6.92157         0.002096     -0.000649     -0.002254
      7.60853      7.94123      0.98754        -0.006188      0.003200      0.017010
     10.24361      6.42012      2.97615         0.004297     -0.002708     -0.020384
      2.32301      0.32379      4.94958        -0.005501      0.003702      0.002038
      7.59898      3.37542      6.92163         0.000873     -0.000862     -0.004072
      7.60822      3.36882      0.98754        -0.004817      0.002458      0.017237
      6.27847      1.08881      6.92159         0.001765     -0.001578     -0.001920
      6.28821      1.08205      0.98764        -0.005297      0.004134      0.017298
     11.56394      4.13343      2.97611         0.003317     -0.001543     -0.019653
      3.64388      4.13378      2.97638         0.004475     -0.003331     -0.020070
      0.99858      1.08910      6.92143         0.001423     -0.002792     -0.001678
      1.00799      1.08229      0.98797        -0.004176      0.003331      0.016737
      6.28378      8.70616      2.97613         0.003948     -0.001864     -0.019723
      7.60312      4.89664      4.94960        -0.004805      0.002796      0.001716
      4.96354      1.84747      2.97629         0.005121     -0.003053     -0.020074
      2.32374      1.84771      2.97641         0.003958     -0.004013     -0.020279
     14.20286      7.18263      4.94973        -0.004732      0.004368      0.001200
     11.55810      5.66174      6.92136         0.003868     -0.002197      0.002662
      6.27913      5.66204      6.92136        -0.000046     -0.003044      0.003035
     11.56779      5.65497      0.98776        -0.003229      0.002728      0.016719
      6.28834      5.65490      0.98766        -0.004856      0.003346      0.016947
      7.60388      6.42003      2.97604         0.003818     -0.002379     -0.019654
      6.28360      4.13381      2.97627         0.004986     -0.003015     -0.019801
      3.64307      2.60999      4.94995        -0.004264      0.004580      0.000877
     10.23896      3.37562      6.92166        -0.000610     -0.001924     -0.004145
     10.24772      3.36878      0.98775        -0.002981      0.002403      0.017018
     10.24279      0.32399      4.94971        -0.004049      0.002492      0.000728
      8.92294      7.18292      4.94961        -0.004980      0.003038      0.001233
     10.24305      4.89652      4.94923        -0.005480      0.002983      0.003071
      6.28291      7.18288      4.94948        -0.005068      0.004031      0.002097
      4.96306      0.32354      4.94957        -0.005015      0.004410      0.001844
      4.96387      6.41973      2.97634         0.003645     -0.001933     -0.020309
      7.60287      0.32375      4.94943        -0.004926      0.003427      0.001999
      8.91837      1.08907      6.92148         0.001522     -0.001642      0.000791
     10.23834      7.94781      6.92158         0.002789     -0.000905     -0.003778
      8.92813      1.08218      0.98802        -0.004671      0.003291      0.016356
     10.24773      7.94104      0.98727        -0.003474      0.004046      0.017974
      4.96316      4.89638      4.95000        -0.005392      0.003549      0.000630
[...]
      3.63183      4.14040      9.09992         0.008085      0.002795      0.002698
      6.27225      8.71318      9.09994         0.003666      0.003426      0.004133
     11.55190      4.14014      9.10007         0.006412      0.014882      0.003404
      8.91259      8.71241      9.10015        -0.006009      0.020559      0.003568
     10.23249      1.85485      9.10000        -0.005538     -0.012202      0.003405
      2.31143      1.85486      9.09991         0.018246     -0.014017      0.003477
     11.55210      8.71310      9.10024         0.005698      0.001935      0.002891
     12.87281      6.42779      9.10013        -0.011016     -0.016666      0.003471
      4.95246      1.85490      9.10034        -0.008812     -0.011956      0.002358
      7.59261      6.42738      9.10051        -0.007844     -0.012675      0.001976
      8.91206      4.14054      9.10012         0.006644      0.001414      0.003198
      4.95163      6.42761      9.09992         0.016385     -0.017232      0.003697
      7.59153      1.85515      9.10006         0.018058     -0.016340      0.003915
      6.27203      4.13995      9.10001         0.001389      0.017530      0.004108
     10.23168      6.42774      9.10034         0.018028     -0.017616      0.003314
    total drift:                                0.012738      0.000933      0.036033

  FREE ENERGIE OF THE ION-ELECTRON SYSTEM (eV)
  free  energy   TOTEN  =      -359.00638673 eV

  energy  without entropy=     -358.93306969  energy(sigma->0) =     -358.98194772

 d Force = 0.3348578E-03[-0.620E-04, 0.732E-03]  d Energy = 0.3941336E-03-0.593E-04
 d Force =-0.3829115E+02[-0.383E+02,-0.383E+02]  d Ewald  =-0.3829115E+02-0.120E-06

 reached required accuracy - stopping structural energy minimisation