 vasp.5.4.4.18Apr17-6-g9f103f2a35 (build Nov 30 2020 22:55:02) complex

 executed on             LinuxIFC date 2023.06.11  18:18:18

 INCAR:
 POTCAR:    PAW_PBE Pt 04Feb2005
 POTCAR:    PAW_PBE Fe 06Sep2000
 POTCAR:    PAW_PBE Co 02Aug2007
 POTCAR:    PAW_PBE Cu 22Jun2005
 POTCAR:    PAW_PBE Ni 02Aug2007
 POTCAR:    PAW_PBE H 15Jun2001

 POTCAR:    PAW_PBE Pt 04Feb2005
   VRHFIN =Pt: s1d9

   TITEL  = PAW_PBE Pt 04Feb2005
   POMASS =  195.080; ZVAL   =   10.000    mass and valenz
   ENMAX  =  230.283; ENMIN  =  172.712 eV

 POTCAR:    PAW_PBE Fe 06Sep2000
   VRHFIN =Fe:  d7 s1

   TITEL  = PAW_PBE Fe 06Sep2000
   POMASS =   55.847; ZVAL   =    8.000    mass and valenz
   ENMAX  =  267.882; ENMIN  =  200.911 eV

 POTCAR:    PAW_PBE Co 02Aug2007
   VRHFIN =Co: d8 s1

   TITEL  = PAW_PBE Co 02Aug2007
   POMASS =   58.933; ZVAL   =    9.000    mass and valenz
   ENMAX  =  267.968; ENMIN  =  200.976 eV

 POTCAR:    PAW_PBE Cu 22Jun2005
   VRHFIN =Cu: d10 p1

   TITEL  = PAW_PBE Cu 22Jun2005
   POMASS =   63.546; ZVAL   =   11.000    mass and valenz
   ENMAX  =  295.446; ENMIN  =  221.585 eV

 POTCAR:    PAW_PBE Ni 02Aug2007
   VRHFIN =Ni:

   TITEL  = PAW_PBE Ni 02Aug2007
   POMASS =   58.690; ZVAL   =   10.000    mass and valenz
   ENMAX  =  269.532; ENMIN  =  202.149 eV

 POTCAR:    PAW_PBE H 15Jun2001
   VRHFIN =H: ultrasoft test

   TITEL  = PAW_PBE H 15Jun2001
   POMASS =    1.000; ZVAL   =    1.000    mass and valenz
   ENMAX  =  250.000; ENMIN  =  200.000 eV

 Optimization of the real space projectors (new method)

 maximal supplied QI-value         = 14.36
 optimisation between [QCUT,QGAM] = [ 11.92, 23.98] = [ 39.79,161.09] Ry
 Optimized for a Real-space Cutoff    1.49 Angstroem

   l    n(q)    QCUT    max X(q) W(low)/X(q) W(high)/X(q)  e(spline)
   2     10    11.920    66.195    0.79E-04    0.18E-03    0.24E-06
   2     10    11.920    64.643    0.81E-04    0.19E-03    0.24E-06
   0     11    11.920    95.520    0.28E-04    0.54E-04    0.18E-06
   0     11    11.920    63.403    0.27E-04    0.52E-04    0.17E-06
   1     10    11.920    19.961    0.18E-04    0.11E-03    0.23E-06
   1     10    11.920    13.289    0.25E-04    0.87E-04    0.19E-06
 Optimization of the real space projectors (new method)

[...]

   l    n(q)    QCUT    max X(q) W(low)/X(q) W(high)/X(q)  e(spline)
   2      9    11.864    60.317    0.21E-03    0.51E-03    0.25E-06
   2      9    11.864    55.921    0.21E-03    0.51E-03    0.26E-06
   0      9    11.864    51.690    0.22E-03    0.30E-04    0.17E-06
   0      9    11.864    30.015    0.20E-03    0.28E-04    0.15E-06
   1      9    11.864    18.849    0.76E-04    0.33E-03    0.17E-06
   1      9    11.864    14.624    0.60E-04    0.28E-03    0.15E-06
 Optimization of the real space projectors (new method)

 maximal supplied QI-value         = 34.20
 optimisation between [QCUT,QGAM] = [ 11.97, 23.94] = [ 40.13,160.53] Ry
 Optimized for a Real-space Cutoff    1.18 Angstroem

   l    n(q)    QCUT    max X(q) W(low)/X(q) W(high)/X(q)  e(spline)
   0      8    11.971    19.460    0.15E-03    0.31E-03    0.25E-06
   0      8    11.971    12.209    0.13E-03    0.29E-03    0.25E-06
   1      8    11.971     4.655    0.22E-03    0.24E-03    0.21E-06
  PAW_PBE Pt 04Feb2005                  :
  PAW_PBE Fe 06Sep2000                  :
  PAW_PBE Co 02Aug2007                  :
  PAW_PBE Cu 22Jun2005                  :
  PAW_PBE Ni 02Aug2007                  :
  PAW_PBE H 15Jun2001                   :

 POSCAR: 10.56
  positions in cartesian coordinates
 exchange correlation table for  LEXCH =        8
   RHO(1)=    0.500       N(1)  =     2000
   RHO(2)=  100.500       N(2)  =     4000

 ion  position               nearest neighbor table
   1  0.789  0.880  0.318-  19 2.63  28 2.63  49 2.66  33 2.66  59 2.66  60 2.67  61 2.68  29 2.68
                             2 2.69  11 2.75  12 2.83   4 2.90
   2  0.042  0.883  0.316-  79 2.55  77 2.60  60 2.62  30 2.64  28 2.65  52 2.67  33 2.68  22 2.69
                             1 2.69   6 2.74  16 2.89   4 2.95
   3  0.280  0.380  0.320-  39 2.57  64 2.58  33 2.59  31 2.63  19 2.70  43 2.70  68 2.71  30 2.72
                             5 2.78  13 2.79  18 2.81  25 2.85
   4  0.876  0.960  0.431-  81 1.72  12 2.64  16 2.64  11 2.65  17 2.66   9 2.66   6 2.67   1 2.90
                            60 2.92   2 2.95
   5  0.123  0.461  0.428-  12 2.62   7 2.63  10 2.63  16 2.64  25 2.66  13 2.67  39 2.73  33 2.74
                             3 2.78
   6  0.128  0.960  0.421-   8 2.62  14 2.63  10 2.64  16 2.65   9 2.66   4 2.67  52 2.74   2 2.74
                            22 2.84
   7  0.875  0.459  0.425-   9 2.61  15 2.62   5 2.63  10 2.64  12 2.65  27 2.66  39 2.66  75 2.73
                            29 2.78
   8  0.376  0.959  0.420-  43 2.60   6 2.62  14 2.62  27 2.62  11 2.63  13 2.63  10 2.64  52 2.69
                            61 2.72
   9  0.876  0.211  0.427-  81 1.80   7 2.61  15 2.64  10 2.65  17 2.66   4 2.66   6 2.66  75 2.80
                            60 2.82  22 2.91
  10  0.127  0.211  0.423-  13 2.61   5 2.63   7 2.64   8 2.64   6 2.64   9 2.65  39 2.67  43 2.70
                            22 2.79
  11  0.625  0.960  0.423-  13 2.63   8 2.63  27 2.64  12 2.64  17 2.65   4 2.65   1 2.75  19 2.82
                            61 2.82
  12  0.876  0.710  0.426-   5 2.62   4 2.64  16 2.64  11 2.64   7 2.65  27 2.65  33 2.68  29 2.81
                             1 2.83
  13  0.375  0.209  0.425-  10 2.61  11 2.63   8 2.63  17 2.64  25 2.66   5 2.67  43 2.76   3 2.79
                            19 2.83
  14  0.377  0.711  0.424-  27 2.61   8 2.62   6 2.63  15 2.64  25 2.65  16 2.66  44 2.69  30 2.77
                            52 2.78
  15  0.626  0.461  0.423-   7 2.62  27 2.62  14 2.64   9 2.64  25 2.65  17 2.65  44 2.69  75 2.71
                            18 2.75
  16  0.126  0.710  0.426-  25 2.63   5 2.64   4 2.64  12 2.64   6 2.65  14 2.66  33 2.67  30 2.81
                             2 2.89
  17  0.625  0.211  0.422-  25 2.64  13 2.64  11 2.65  15 2.65   4 2.66   9 2.66  60 2.74  18 2.75
                            19 2.85
  18  0.549  0.376  0.317-  67 2.56  60 2.59  75 2.61  44 2.64  68 2.66  26 2.67  30 2.71  19 2.73
                            17 2.75  15 2.75   3 2.81  25 2.87
  19  0.536  0.124  0.315-  80 2.55  68 2.57  43 2.58  59 2.59   1 2.63  61 2.63   3 2.70  18 2.73
                            60 2.76  11 2.82  13 2.83  17 2.85
  20  0.547  0.124  0.040-  37 2.55  57 2.56  48 2.58  62 2.64  63 2.68  47 2.68  45 2.68  56 2.70
                            34 2.71
  21  0.121  0.460  0.128-  40 2.52  36 2.53  47 2.53  42 2.60  69 2.61  64 2.62  70 2.64  50 2.64
                            58 2.67  31 2.70  57 2.71  74 2.72
  22  0.041  0.138  0.315-  65 2.52  55 2.55  77 2.57  39 2.57  43 2.59  75 2.59  60 2.65   2 2.69
                            52 2.73  10 2.79   6 2.84   9 2.91  31 3.41
  23  0.042  0.130  0.033-  70 2.58  40 2.60  41 2.61  45 2.62  62 2.64  76 2.64  24 2.69  35 2.73
                            53 2.78
  24  0.130  0.958  0.132-  79 2.51  77 2.54  35 2.57  53 2.57  55 2.58  70 2.62  38 2.64  58 2.64
                            73 2.65  23 2.69  66 2.70  41 2.72
  25  0.375  0.461  0.426-  16 2.63  17 2.64  14 2.65  15 2.65   5 2.66  13 2.66   3 2.85  30 2.85
                            18 2.87
  26  0.455  0.546  0.219-  73 2.50  74 2.54  51 2.56  79 2.61  64 2.63  30 2.65  18 2.67  68 2.67
                            78 2.67  32 2.68  67 2.72  44 2.76
  27  0.624  0.711  0.424-  14 2.61  15 2.62   8 2.62  11 2.64  12 2.65   7 2.66  44 2.68  61 2.78
                            29 2.78
  28  0.956  0.790  0.221-  58 2.57  66 2.57  50 2.58  42 2.59  49 2.61   1 2.63  64 2.63   2 2.65
                            59 2.70  33 2.72  79 2.76  77 2.77
  29  0.795  0.623  0.319-  39 2.55  42 2.55  75 2.58  32 2.62  44 2.64  33 2.65  61 2.67  49 2.68
                             1 2.68  27 2.78   7 2.78  12 2.81
  30  0.292  0.632  0.318-  79 2.56  64 2.61  52 2.62  44 2.63   2 2.64  26 2.65  33 2.65  18 2.71
                             3 2.72  14 2.77  16 2.81  25 2.85
  31  0.203  0.281  0.225-  70 2.52  55 2.56  65 2.57  43 2.60  57 2.60   3 2.63  39 2.67  80 2.70
                            21 2.70  42 2.71  68 2.75  64 2.79  22 3.41
  32  0.706  0.549  0.221-  54 2.53  69 2.56  51 2.58  49 2.59  42 2.60  29 2.62  78 2.62  65 2.63
                            26 2.68  44 2.70  75 2.70  67 2.70
  33  0.042  0.630  0.325-   3 2.59  39 2.64  29 2.65  30 2.65   1 2.66  16 2.67   2 2.68  12 2.68
                            64 2.69  28 2.72  42 2.73   5 2.74
  34  0.797  0.862  0.042-  50 2.38  66 2.51  48 2.53  36 2.55  71 2.56  63 2.61  20 2.71  35 2.76
                            62 2.76
  35  0.056  0.866  0.038-  58 2.54  72 2.55  36 2.56  24 2.57  66 2.62  53 2.65  23 2.73  62 2.73
                            34 2.76
  36  0.046  0.628  0.037-  21 2.53  34 2.55  35 2.56  58 2.58  50 2.61  47 2.63  72 2.64  40 2.69
                            71 2.72
  37  0.627  0.222  0.129-  51 2.51  74 2.51  67 2.52  56 2.53  41 2.55  20 2.55  68 2.56  59 2.56
                            62 2.59  66 2.66  57 2.73  48 2.89
  38  0.382  0.955  0.130-  53 2.47  80 2.48  45 2.49  78 2.53  48 2.54  73 2.55  63 2.55  54 2.56
                            55 2.59  57 2.62  24 2.64  70 2.67
  39  0.036  0.383  0.325-  29 2.55   3 2.57  22 2.57  75 2.58  33 2.64   7 2.66  10 2.67  31 2.67
                            42 2.67   5 2.73  65 2.76  43 2.77
  40  0.031  0.382  0.038-  69 2.44  21 2.52  71 2.53  76 2.56  70 2.57  23 2.60  36 2.69  45 2.78
                            47 2.78
  41  0.872  0.215  0.128-  76 2.45  65 2.52  77 2.53  67 2.54  37 2.55  69 2.57  62 2.57  51 2.59
                            23 2.61  70 2.65  66 2.66  24 2.72
  42  0.955  0.545  0.224-  29 2.55  50 2.56  28 2.59  21 2.60  32 2.60  69 2.61  49 2.63  65 2.64
                            64 2.65  39 2.67  31 2.71  33 2.73
  43  0.296  0.117  0.322-  52 2.52  55 2.54  61 2.57  19 2.58  22 2.59  31 2.60   8 2.60  80 2.67
                             3 2.70  10 2.70  13 2.76  39 2.77
  44  0.542  0.629  0.322-  61 2.57  52 2.60  30 2.63  18 2.64  29 2.64  78 2.65  75 2.65  27 2.68
                            15 2.69  14 2.69  32 2.70  26 2.76
  45  0.295  0.119  0.039-  70 2.49  38 2.49  57 2.57  53 2.60  23 2.62  63 2.64  20 2.68  47 2.75
                            40 2.78
  46  0.548  0.625  0.044-  51 2.38  73 2.39  54 2.41  71 2.56  53 2.56  63 2.58  76 2.59  56 2.62
                            72 2.64
  47  0.296  0.379  0.039-  74 2.41  21 2.53  57 2.61  72 2.61  56 2.62  36 2.63  20 2.68  45 2.75
                            40 2.78
  48  0.625  0.950  0.132-  49 2.40  80 2.48  54 2.48  34 2.53  38 2.54  59 2.55  50 2.56  63 2.57
                            20 2.58  57 2.65  66 2.68  37 2.89
  49  0.706  0.794  0.220-  48 2.40  50 2.48  54 2.49  80 2.53  32 2.59  28 2.61  78 2.61  61 2.63
                            42 2.63   1 2.66  29 2.68  59 2.69
  50  0.866  0.706  0.129-  34 2.38  71 2.42  54 2.48  49 2.48  42 2.56  48 2.56  69 2.58  28 2.58
                            36 2.61  21 2.64  66 2.76  58 2.85
[...]
      7.74264      3.48454      0.76157        -0.009015     -0.013459     -0.002134
      5.07835      1.87760      2.91701        -0.001968     -0.012076      0.001013
      5.16037      6.44715      2.89923        -0.013096     -0.009574     -0.012444
      7.70892      0.45986      4.84799         0.043198     -0.011622      0.036447
      9.07194      1.19335      7.01014        -0.004104     -0.001950      0.007029
[...]
      9.07350      2.65252      4.91360         0.025086     -0.049788      0.044445
      6.37169      2.66558      4.85827         0.000562      0.010229      0.001845
     11.65891      4.17486      2.81483        -0.006940      0.004493     -0.014235
      2.44098      1.89237      2.83279        -0.001024      0.038104      0.005286
     11.64953      5.68621      0.88546         0.002664      0.037659      0.007863
      6.44743      5.71949      0.92597        -0.004799      0.015257      0.028448
      7.82927      6.50651      2.83621        -0.036817      0.006918     -0.039258
      6.41922      4.13007      2.78290        -0.021477     -0.006322      0.010367
     10.38323      3.47084      7.06383         0.001558      0.004445     -0.000303
     10.34410      3.45013      0.86804        -0.001439     -0.011411     -0.015620
     10.37063      0.48410      4.87151        -0.040021     -0.003444      0.035501
      9.04079      7.29017      4.93700         0.007098     -0.027558      0.029075
      6.46265      7.29503      4.94074         0.106818      0.013322     -0.045565
      5.04247      0.27633      4.88406        -0.008626      0.010891     -0.012917
      9.60833      0.81262     10.56954        -0.001652      0.011644      0.116710
    total drift:                                0.005767     -0.015873     -0.022062

  FREE ENERGIE OF THE ION-ELECTRON SYSTEM (eV)
  free  energy   TOTEN  =      -511.48372427 eV

  energy  without entropy=     -511.48372427  energy(sigma->0) =     -511.48372427

 d Force =-0.9120539E-04[-0.350E-02, 0.332E-02]  d Energy = 0.8575547E-04-0.177E-03
 d Force =-0.1060136E+02[-0.106E+02,-0.106E+02]  d Ewald  =-0.1060154E+02 0.183E-03

 Finite differences progress:
  Degree of freedom:   3/  3
  Displacement:        2/  2
  Total:               6/  6

 SECOND DERIVATIVES (NOT SYMMETRIZED)
              81X         81Y         81Z
 81X    -0.813873   -0.809152   -0.354979
 81Y    -0.812135   -1.893660   -1.498908
 81Z    -0.354416   -1.497855   -7.578013

 Eigenvectors and eigenvalues of the dynamical matrix

   1 f  =   44.189243 THz   277.649201 2PiTHz 1473.994433 cm-1   182.752084 meV
             X         Y         Z           dx          dy          dz
     12.976563  8.047125  7.006810            0           0           0
      5.106058  8.073912  6.952036            0           0           0
      4.967573  3.474815  7.033395            0           0           0
     14.314145  8.775412  9.473807            0           0           0
      3.737960  4.219204  9.414267            0           0           0
      6.418581  8.777941  9.253002            0           0           0
     11.668428  4.197297  9.360270            0           0           0
      9.034342  8.772811  9.248339            0           0           0
     10.365384  1.933178  9.400037            0           0           0
      2.452453  1.925863  9.297287            0           0           0
     11.665988  8.779895  9.315951            0           0           0
     12.995538  6.495072  9.367605            0           0           0
      5.065971  1.908902  9.345739            0           0           0
      7.734446  6.501976  9.325815            0           0           0
      9.047574  4.216478  9.300257            0           0           0
      5.078476  6.490633  9.371086            0           0           0
      7.709405  1.925971  9.274586            0           0           0
      7.778904  3.439653  6.983147            0           0           0
      6.310026  1.134248  6.925906            0           0           0
      6.428579  1.129740  0.878720            0           0           0
      3.705484  4.208436  2.816869            0           0           0
      1.161939  1.257793  6.919485            0           0           0
      1.135691  1.190800  0.725566            0           0           0
      6.436066  8.760995  2.900314            0           0           0
      6.397318  4.213717  9.380835            0           0           0
      7.681351  4.990728  4.814740            0           0           0
     10.341290  6.498540  9.318453            0           0           0
     14.264242  7.225928  4.862987            0           0           0
     11.684351  5.699756  7.017021            0           0           0
      6.414576  5.775864  7.000696            0           0           0
      3.621194  2.565893  4.960228            0           0           0
     10.360912  5.024302  4.856517            0           0           0
      3.767147  5.765283  7.158285            0           0           0
     12.969068  7.879772  0.925674            0           0           0
      5.163396  7.917194  0.830298            0           0           0
      3.807011  5.745024  0.813805            0           0           0
      7.798522  2.032451  2.832513            0           0           0
      9.077547  8.733730  2.857427            0           0           0
      2.404081  3.500514  7.143420            0           0           0
      2.344093  3.490514  0.825101            0           0           0
     10.348141  1.969830  2.822490            0           0           0
     12.960353  4.985870  4.925592            0           0           0
      3.737636  1.068207  7.078699            0           0           0
      9.042292  5.754864  7.092584            0           0           0
      3.748243  1.091821  0.867003            0           0           0
      9.091210  5.718673  0.960427            0           0           0
      5.124479  3.470454  0.855627            0           0           0
     11.620923  8.687580  2.905895            0           0           0
     11.653130  7.264496  4.842290            0           0           0
     12.867560  6.452796  2.833790            0           0           0
      9.042010  4.207796  2.796278            0           0           0
      7.772737  8.018689  6.998423            0           0           0
      7.813155  7.939223  0.886525            0           0           0
     10.391439  6.535663  2.821980            0           0           0
      2.513474  0.258257  5.000827            0           0           0
      7.742638  3.484538  0.761574            0           0           0
      5.078354  1.877603  2.917008            0           0           0
      5.160365  6.447147  2.899226            0           0           0
      7.708921  0.459858  4.847993            0           0           0
      9.071939  1.193350  7.010140            0           0           0
[...]
      9.073503  2.652522  4.913605            0           0           0
      6.371693  2.665576  4.858272            0           0           0
     11.658911  4.174860  2.814827            0           0           0
      2.440982  1.892366  2.832794            0           0           0
     11.649530  5.686214  0.885461            0           0           0
      6.447433  5.719494  0.925972            0           0           0
      7.829267  6.506514  2.836212            0           0           0
      6.419224  4.130068  2.782896            0           0           0
     10.383234  3.470844  7.063826            0           0           0
     10.344097  3.450125  0.868038            0           0           0
     10.370626  0.484098  4.871515            0           0           0
      9.040790  7.290173  4.936995            0           0           0
      6.462653  7.295032  4.940739            0           0           0
      5.042471  0.276335  4.884059            0           0           0
      9.608332  0.812623 10.584539     0.075703    0.247487    0.965929

[...]

   3 f  =    9.304970 THz    58.464853 2PiTHz  310.380392 cm-1    38.482278 meV
             X         Y         Z           dx          dy          dz
     12.976563  8.047125  7.006810            0           0           0
      5.106058  8.073912  6.952036            0           0           0
      4.967573  3.474815  7.033395            0           0           0
     14.314145  8.775412  9.473807            0           0           0
      3.737960  4.219204  9.414267            0           0           0
      6.418581  8.777941  9.253002            0           0           0
     11.668428  4.197297  9.360270            0           0           0
      9.034342  8.772811  9.248339            0           0           0
     10.365384  1.933178  9.400037            0           0           0
      2.452453  1.925863  9.297287            0           0           0
     11.665988  8.779895  9.315951            0           0           0
     12.995538  6.495072  9.367605            0           0           0
      5.065971  1.908902  9.345739            0           0           0
      7.734446  6.501976  9.325815            0           0           0
      9.047574  4.216478  9.300257            0           0           0
      5.078476  6.490633  9.371086            0           0           0
      7.709405  1.925971  9.274586            0           0           0
      7.778904  3.439653  6.983147            0           0           0
      6.310026  1.134248  6.925906            0           0           0
      6.428579  1.129740  0.878720            0           0           0
      3.705484  4.208436  2.816869            0           0           0
      1.161939  1.257793  6.919485            0           0           0
      1.135691  1.190800  0.725566            0           0           0
      6.436066  8.760995  2.900314            0           0           0
      6.397318  4.213717  9.380835            0           0           0
      7.681351  4.990728  4.814740            0           0           0
     10.341290  6.498540  9.318453            0           0           0
     14.264242  7.225928  4.862987            0           0           0
     11.684351  5.699756  7.017021            0           0           0
      6.414576  5.775864  7.000696            0           0           0
      3.621194  2.565893  4.960228            0           0           0
     10.360912  5.024302  4.856517            0           0           0
      3.767147  5.765283  7.158285            0           0           0
     12.969068  7.879772  0.925674            0           0           0
      5.163396  7.917194  0.830298            0           0           0
      3.807011  5.745024  0.813805            0           0           0
      7.798522  2.032451  2.832513            0           0           0
      9.077547  8.733730  2.857427            0           0           0
      2.404081  3.500514  7.143420            0           0           0
      2.344093  3.490514  0.825101            0           0           0
     10.348141  1.969830  2.822490            0           0           0
     12.960353  4.985870  4.925592            0           0           0
      3.737636  1.068207  7.078699            0           0           0
      9.042292  5.754864  7.092584            0           0           0
      3.748243  1.091821  0.867003            0           0           0
      9.091210  5.718673  0.960427            0           0           0
      5.124479  3.470454  0.855627            0           0           0
     11.620923  8.687580  2.905895            0           0           0
     11.653130  7.264496  4.842290            0           0           0
     12.867560  6.452796  2.833790            0           0           0
      9.042010  4.207796  2.796278            0           0           0
      7.772737  8.018689  6.998423            0           0           0
      7.813155  7.939223  0.886525            0           0           0
     10.391439  6.535663  2.821980            0           0           0
      2.513474  0.258257  5.000827            0           0           0
      7.742638  3.484538  0.761574            0           0           0
      5.078354  1.877603  2.917008            0           0           0
      5.160365  6.447147  2.899226            0           0           0
      7.708921  0.459858  4.847993            0           0           0
      9.071939  1.193350  7.010140            0           0           0
[...]
      9.073503  2.652522  4.913605            0           0           0
      6.371693  2.665576  4.858272            0           0           0
     11.658911  4.174860  2.814827            0           0           0
      2.440982  1.892366  2.832794            0           0           0
     11.649530  5.686214  0.885461            0           0           0
      6.447433  5.719494  0.925972            0           0           0
      7.829267  6.506514  2.836212            0           0           0
      6.419224  4.130068  2.782896            0           0           0
     10.383234  3.470844  7.063826            0           0           0
     10.344097  3.450125  0.868038            0           0           0
     10.370626  0.484098  4.871515            0           0           0
      9.040790  7.290173  4.936995            0           0           0
      6.462653  7.295032  4.940739            0           0           0
      5.042471  0.276335  4.884059            0           0           0
      9.608332  0.812623 10.584539     0.855735   -0.513382    0.064470

 Finite differences POTIM=  1.500000000000000E-002
  LATTYP: Found a hexagonal cell.
 ALAT       =    10.5600004196
 C/A-ratio  =     2.0833332505

  Lattice vectors:

 A1 = (   5.2800002098,  -9.1452286274,   0.0000000000)
 A2 = ( -10.5600004196,   0.0000000000,   0.0000000000)
 A3 = (   0.0000000000,   0.0000000000, -22.0000000000)

Analysis of symmetry for initial positions (statically):
 Subroutine PRICEL returns:
 Original cell was already a primitive cell.

[...]

The static configuration has the point symmetry C_1 .

Analysis of symmetry for dynamics (positions and initial velocities):
 Subroutine PRICEL returns:
 Original cell was already a primitive cell.

[...]

The dynamic configuration has the point symmetry C_1 .

Analysis of constrained symmetry for selective dynamics:
 Subroutine PRICEL returns:
 Original cell was already a primitive cell.

[...]

The constrained configuration has the point symmetry C_1 .

Analysis of structural, dynamic, and magnetic symmetry:
 Subroutine PRICEL returns:
 Original cell was already a primitive cell.

 Routine SETGRP: Setting up the symmetry group for a
 hexagonal supercell.

 Subroutine GETGRP returns: Found  1 space group operations
 (whereof  1 operations were pure point group operations)
 out of a pool of 24 trial point group operations.

The magnetic configuration has the point symmetry C_1 .

 Subroutine INISYM returns: Found  1 space group operations
 (whereof  1 operations are pure point group operations),
 and found     1 'primitive' translations

 KPOINTS: mesh auto

Automatic generation of k-mesh.
Space group operators:
 irot       det(A)        alpha          n_x          n_y          n_z        tau_x        tau_y        tau_z
    1     1.000000     0.000001     1.000000     0.000000     0.000000     0.000000     0.000000     0.000000

 Subroutine IBZKPT returns following result:

 Found     10 irreducible k-points:

 Following reciprocal coordinates:
            Coordinates               Weight
  0.000000  0.000000  0.000000      1.000000
  0.250000  0.000000  0.000000      2.000000
  0.500000  0.000000  0.000000      1.000000
  0.000000  0.250000  0.000000      2.000000
  0.250000  0.250000  0.000000      2.000000
  0.500000  0.250000  0.000000      2.000000
 -0.250000  0.250000  0.000000      2.000000
  0.000000  0.500000  0.000000      1.000000
  0.250000  0.500000  0.000000      2.000000
  0.500000  0.500000  0.000000      1.000000

 Following cartesian coordinates:
            Coordinates               Weight
  0.000000  0.000000  0.000000      1.000000
  0.023674 -0.013668  0.000000      2.000000
  0.047348 -0.027337  0.000000      1.000000
  0.000000  0.027337  0.000000      2.000000
  0.023674  0.013668  0.000000      2.000000
  0.047348  0.000000  0.000000      2.000000
 -0.023674  0.041005  0.000000      2.000000
  0.000000  0.054673  0.000000      1.000000
  0.023674  0.041005  0.000000      2.000000
  0.047348  0.027337  0.000000      1.000000

 TETIRR: Found     48 inequivalent tetrahedra from       96
 BZINTS: Fermi energy:  2.035304;778.000000 electrons
         Band energy:-683.958634;  BLOECHL correction: -0.054158