 vasp.5.4.4.18Apr17-6-g9f103f2a35 (build Nov 30 2020 22:55:02) complex

 executed on             LinuxIFC date 2023.08.05  10:24:19

 INCAR:
 POTCAR:    PAW_PBE Pt 04Feb2005
 POTCAR:    PAW_PBE Cu 22Jun2005
 POTCAR:    PAW_PBE Ni 02Aug2007
 POTCAR:    PAW_PBE Fe 06Sep2000
 POTCAR:    PAW_PBE Co 02Aug2007
 POTCAR:    PAW_PBE H 15Jun2001

 POTCAR:    PAW_PBE Pt 04Feb2005
   VRHFIN =Pt: s1d9

   TITEL  = PAW_PBE Pt 04Feb2005
   POMASS =  195.080; ZVAL   =   10.000    mass and valenz
   ENMAX  =  230.283; ENMIN  =  172.712 eV

 POTCAR:    PAW_PBE Cu 22Jun2005
   VRHFIN =Cu: d10 p1

   TITEL  = PAW_PBE Cu 22Jun2005
   POMASS =   63.546; ZVAL   =   11.000    mass and valenz
   ENMAX  =  295.446; ENMIN  =  221.585 eV

 POTCAR:    PAW_PBE Ni 02Aug2007
   VRHFIN =Ni:

   TITEL  = PAW_PBE Ni 02Aug2007
   POMASS =   58.690; ZVAL   =   10.000    mass and valenz
   ENMAX  =  269.532; ENMIN  =  202.149 eV

 POTCAR:    PAW_PBE Fe 06Sep2000
   VRHFIN =Fe:  d7 s1

   TITEL  = PAW_PBE Fe 06Sep2000
   POMASS =   55.847; ZVAL   =    8.000    mass and valenz
   ENMAX  =  267.882; ENMIN  =  200.911 eV

 POTCAR:    PAW_PBE Co 02Aug2007
   VRHFIN =Co: d8 s1

   TITEL  = PAW_PBE Co 02Aug2007
   POMASS =   58.933; ZVAL   =    9.000    mass and valenz
   ENMAX  =  267.968; ENMIN  =  200.976 eV

 POTCAR:    PAW_PBE H 15Jun2001
   VRHFIN =H: ultrasoft test

   TITEL  = PAW_PBE H 15Jun2001
   POMASS =    1.000; ZVAL   =    1.000    mass and valenz
   ENMAX  =  250.000; ENMIN  =  200.000 eV

 Optimization of the real space projectors (new method)

 maximal supplied QI-value         = 14.36
 optimisation between [QCUT,QGAM] = [ 11.92, 23.98] = [ 39.79,161.09] Ry
 Optimized for a Real-space Cutoff    1.49 Angstroem

   l    n(q)    QCUT    max X(q) W(low)/X(q) W(high)/X(q)  e(spline)
   2     10    11.920    66.195    0.79E-04    0.18E-03    0.24E-06
   2     10    11.920    64.643    0.81E-04    0.19E-03    0.24E-06
   0     11    11.920    95.520    0.28E-04    0.54E-04    0.18E-06
   0     11    11.920    63.403    0.27E-04    0.52E-04    0.17E-06
   1     10    11.920    19.961    0.18E-04    0.11E-03    0.23E-06
   1     10    11.920    13.289    0.25E-04    0.87E-04    0.19E-06
 Optimization of the real space projectors (new method)

[...]

   l    n(q)    QCUT    max X(q) W(low)/X(q) W(high)/X(q)  e(spline)
   2      9    11.864    65.824    0.22E-03    0.53E-03    0.26E-06
   2      9    11.864    61.429    0.22E-03    0.53E-03    0.26E-06
   0      9    11.864    56.174    0.21E-03    0.32E-04    0.15E-06
   0      9    11.864    31.263    0.19E-03    0.30E-04    0.14E-06
   1      9    11.864    19.828    0.63E-04    0.30E-03    0.16E-06
   1      9    11.864    15.139    0.49E-04    0.25E-03    0.13E-06
 Optimization of the real space projectors (new method)

 maximal supplied QI-value         = 34.20
 optimisation between [QCUT,QGAM] = [ 11.97, 23.94] = [ 40.13,160.53] Ry
 Optimized for a Real-space Cutoff    1.18 Angstroem

   l    n(q)    QCUT    max X(q) W(low)/X(q) W(high)/X(q)  e(spline)
   0      8    11.971    19.460    0.15E-03    0.31E-03    0.25E-06
   0      8    11.971    12.209    0.13E-03    0.29E-03    0.25E-06
   1      8    11.971     4.655    0.22E-03    0.24E-03    0.21E-06
  PAW_PBE Pt 04Feb2005                  :
  PAW_PBE Cu 22Jun2005                  :
  PAW_PBE Ni 02Aug2007                  :
  PAW_PBE Fe 06Sep2000                  :
  PAW_PBE Co 02Aug2007                  :
  PAW_PBE H 15Jun2001                   :

 POSCAR: 10.56
  positions in cartesian coordinates
 exchange correlation table for  LEXCH =        8
   RHO(1)=    0.500       N(1)  =     2000
   RHO(2)=  100.500       N(2)  =     4000

 ion  position               nearest neighbor table
   1  0.790  0.874  0.317-  49 2.56  59 2.59  19 2.63  33 2.64  61 2.65  29 2.67  60 2.68  28 2.70
                             2 2.72   4 2.82  11 2.86  12 2.98
   2  0.044  0.881  0.316-  79 2.55  77 2.57  60 2.61  30 2.64  28 2.65  22 2.66  52 2.68   1 2.72
                            33 2.73   6 2.75   4 2.81  16 2.89
   3  0.288  0.378  0.320-  64 2.57  39 2.60  33 2.61  68 2.63  31 2.65  19 2.68  43 2.70  30 2.71
                             5 2.76  18 2.78  25 2.82  13 2.82
   4  0.879  0.958  0.423-   9 2.63  16 2.63   6 2.64  12 2.65  17 2.65  11 2.67  60 2.69   2 2.81
                             1 2.82
   5  0.129  0.457  0.426-  13 2.61  12 2.63  25 2.63  10 2.64   7 2.65  16 2.65  33 2.76   3 2.76
                            39 2.77
   6  0.129  0.958  0.421-   8 2.61  14 2.62  10 2.63   4 2.64  16 2.64   9 2.65   2 2.75  52 2.81
                            22 2.88
   7  0.881  0.451  0.424-  82 1.74   9 2.59  10 2.60  15 2.64   5 2.65  12 2.71  39 2.72  27 2.73
                            29 2.77  75 2.79
   8  0.376  0.957  0.418-   6 2.61  27 2.62  10 2.62  43 2.62  14 2.63  11 2.65  13 2.66  52 2.66
                            61 2.66
   9  0.877  0.208  0.422-   7 2.59  17 2.63   4 2.63  15 2.64  60 2.65   6 2.65  10 2.66  75 2.72
                            22 2.82
  10  0.129  0.207  0.422-   7 2.60  13 2.61   8 2.62   6 2.63   5 2.64   9 2.66  43 2.72  39 2.74
                            22 2.82
  11  0.623  0.964  0.427-  81 1.67  13 2.60  17 2.61   8 2.65   4 2.67  27 2.70  12 2.72  19 2.84
                             1 2.86  61 2.88
  12  0.881  0.707  0.433-  82 1.86  81 2.02  16 2.61   5 2.63   4 2.65   7 2.71  11 2.72  27 2.74
                            33 2.84  29 2.96   1 2.98
  13  0.375  0.209  0.427-  11 2.60  10 2.61   5 2.61   8 2.66  25 2.66  17 2.67   3 2.82  43 2.85
                            19 2.88
  14  0.377  0.709  0.427-  27 2.58   6 2.62   8 2.63  25 2.63  16 2.63  15 2.65  44 2.75  30 2.79
                            52 2.88
  15  0.627  0.458  0.423-  27 2.62  17 2.63  25 2.64   9 2.64   7 2.64  14 2.65  44 2.73  18 2.75
                            75 2.79
  16  0.128  0.708  0.426-  12 2.61  25 2.63  14 2.63   4 2.63   6 2.64   5 2.65  33 2.77  30 2.80
                             2 2.89
  17  0.628  0.208  0.424-  11 2.61   9 2.63  15 2.63   4 2.65  25 2.65  13 2.67  60 2.71  18 2.78
                            19 2.88
  18  0.555  0.370  0.317-  67 2.53  75 2.55  60 2.57  68 2.60  26 2.68  44 2.69  19 2.72  15 2.75
                            30 2.76   3 2.78  17 2.78  25 2.90
  19  0.539  0.121  0.316-  59 2.54  80 2.56  68 2.56  43 2.60  61 2.62   1 2.63   3 2.68  18 2.72
                            60 2.73  11 2.84  13 2.88  17 2.88
  20  0.547  0.122  0.038-  57 2.54  37 2.59  48 2.60  62 2.60  47 2.60  34 2.65  45 2.68  63 2.71
                            56 2.75
  21  0.124  0.462  0.127-  36 2.55  47 2.57  40 2.58  58 2.61  42 2.61  64 2.63  31 2.66  69 2.66
                            50 2.67  74 2.69  70 2.69  57 2.69
  22  0.041  0.134  0.313-  65 2.47  55 2.54  75 2.54  77 2.57  39 2.59  43 2.60  60 2.65   2 2.66
                            52 2.74  10 2.82   9 2.82   6 2.88
  23  0.032  0.135  0.034-  70 2.57  62 2.59  40 2.59  41 2.60  76 2.63  45 2.70  24 2.70  35 2.71
                            53 2.86
  24  0.127  0.955  0.132-  79 2.52  55 2.55  53 2.61  35 2.62  77 2.62  58 2.62  73 2.64  70 2.65
                            38 2.67  66 2.68  23 2.70  41 2.74
  25  0.377  0.459  0.426-  16 2.63  14 2.63   5 2.63  15 2.64  17 2.65  13 2.66   3 2.82  30 2.83
                            18 2.90
  26  0.458  0.546  0.220-  73 2.50  74 2.51  51 2.53  79 2.60  64 2.61  30 2.65  68 2.66  18 2.68
                            32 2.69  78 2.71  44 2.72  67 2.74
  27  0.621  0.709  0.429-  82 1.99  81 2.02  14 2.58   8 2.62  15 2.62  11 2.70   7 2.73  12 2.74
                            44 2.76  29 2.84  61 2.87
  28  0.964  0.793  0.218-  66 2.54  50 2.56  58 2.58  77 2.63  42 2.64   2 2.65  64 2.65  79 2.68
                             1 2.70  59 2.70  49 2.75  33 2.77
  29  0.789  0.622  0.320-  44 2.58  39 2.61  42 2.62  32 2.63  75 2.63  61 2.64  33 2.66   1 2.67
                            49 2.68   7 2.77  27 2.84  12 2.96
  30  0.294  0.631  0.319-  79 2.56  64 2.61  44 2.61  52 2.62   2 2.64  26 2.65   3 2.71  33 2.71
                            18 2.76  14 2.79  16 2.80  25 2.83
  31  0.211  0.284  0.223-  57 2.55  70 2.55  65 2.59  43 2.60  55 2.61  80 2.64   3 2.65  21 2.66
                            39 2.66  68 2.67  42 2.71  64 2.72
  32  0.717  0.537  0.221-  69 2.51  54 2.56  51 2.57  65 2.60  42 2.61  29 2.63  75 2.63  67 2.64
                            49 2.68  26 2.69  44 2.75  78 2.78
  33  0.040  0.625  0.322-  39 2.59  42 2.59   3 2.61   1 2.64  29 2.66  64 2.67  30 2.71   2 2.73
                             5 2.76  28 2.77  16 2.77  12 2.84
  34  0.797  0.870  0.037-  50 2.48  66 2.50  36 2.54  48 2.61  35 2.62  63 2.64  71 2.65  20 2.65
                            62 2.72
  35  0.044  0.872  0.035-  58 2.56  36 2.57  66 2.61  24 2.62  34 2.62  72 2.70  23 2.71  62 2.72
                            53 2.74
  36  0.039  0.631  0.035-  58 2.54  34 2.54  21 2.55  35 2.57  50 2.59  40 2.68  71 2.72  72 2.76
                            47 2.78
  37  0.626  0.214  0.133-  68 2.52  59 2.52  67 2.52  41 2.56  51 2.57  56 2.58  66 2.59  20 2.59
                            74 2.60  62 2.60  57 2.64  48 2.76
  38  0.376  0.961  0.131-  80 2.47  53 2.51  55 2.53  78 2.53  63 2.53  45 2.55  54 2.58  48 2.61
                            57 2.62  24 2.67  70 2.69  73 2.69
  39  0.041  0.379  0.320-  33 2.59  22 2.59  42 2.60   3 2.60  29 2.61  75 2.63  31 2.66  65 2.66
                            43 2.71   7 2.72  10 2.74   5 2.77
  40  0.040  0.377  0.033-  69 2.55  21 2.58  23 2.59  76 2.61  70 2.61  45 2.66  71 2.67  36 2.68
                            47 2.81
  41  0.868  0.215  0.131-  67 2.47  65 2.53  76 2.53  77 2.53  37 2.56  51 2.56  62 2.57  69 2.59
                            23 2.60  70 2.61  66 2.63  24 2.74
  42  0.960  0.545  0.225-  33 2.59  39 2.60  50 2.61  32 2.61  21 2.61  29 2.62  28 2.64  64 2.65
                            69 2.68  65 2.69  49 2.70  31 2.71
  43  0.293  0.119  0.319-  52 2.54  55 2.56  22 2.60  31 2.60  19 2.60  61 2.61   8 2.62  80 2.64
                             3 2.70  39 2.71  10 2.72  13 2.85
  44  0.541  0.631  0.322-  61 2.55  52 2.56  29 2.58  30 2.61  78 2.65  18 2.69  26 2.72  75 2.73
                            15 2.73  14 2.75  32 2.75  27 2.76
  45  0.292  0.126  0.037-  38 2.55  57 2.57  70 2.59  40 2.66  53 2.66  20 2.68  23 2.70  47 2.70
                            63 2.74
  46  0.545  0.626  0.042-  73 2.43  51 2.44  54 2.47  71 2.53  53 2.54  76 2.54  63 2.55  72 2.56
                            56 2.56
  47  0.307  0.374  0.039-  74 2.45  57 2.52  56 2.54  21 2.57  20 2.60  72 2.62  45 2.70  36 2.78
                            40 2.81
  48  0.628  0.952  0.133-  49 2.43  80 2.48  59 2.50  63 2.52  50 2.54  54 2.54  20 2.60  34 2.61
                            66 2.61  38 2.61  57 2.66  37 2.76
  49  0.701  0.798  0.223-  48 2.43  54 2.51  80 2.51  61 2.56  78 2.56   1 2.56  50 2.57  59 2.60
                            32 2.68  29 2.68  42 2.70  28 2.75
  50  0.866  0.710  0.128-  71 2.42  34 2.48  48 2.54  28 2.56  49 2.57  54 2.58  36 2.59  42 2.61
[...]
     13.010760  7.954144  0.822852            0           0           0
      5.070618  7.976644  0.759159            0           0           0
      3.747252  5.772328  0.772685            0           0           0
      7.739055  1.959228  2.918920            0           0           0
      9.045754  8.788967  2.872263            0           0           0
      2.432226  3.469283  7.049001            0           0           0
      2.407877  3.445951  0.736756            0           0           0
     10.298420  1.968233  2.881385            0           0           0
     13.013514  4.988054  4.944101            0           0           0
      3.726238  1.090198  7.019067            0           0           0
      9.042848  5.769916  7.085020            0           0           0
      3.746828  1.152850  0.819592            0           0           0
      9.065133  5.724714  0.925373            0           0           0
      5.212120  3.416365  0.860857            0           0           0
     11.656252  8.704956  2.917869            0           0           0
     11.621509  7.299740  4.901783            0           0           0
     12.899801  6.497445  2.823641            0           0           0
      9.013433  4.186125  2.819185            0           0           0
      7.800358  8.002188  6.948033            0           0           0
      7.810527  7.928589  0.868881            0           0           0
     10.316566  6.548306  2.894722            0           0           0
      2.461657  0.316610  4.927330            0           0           0
      7.751538  3.525426  0.863327            0           0           0
      5.102914  1.899843  2.870690            0           0           0
      5.173495  6.405568  2.772261            0           0           0
      7.654181  0.393883  4.892331            0           0           0
      9.057024  1.141868  7.096415            0           0           0
[...]
      6.395982  2.679971  4.922922            0           0           0
     11.640522  4.178437  2.789004            0           0           0
      2.349716  1.924995  2.861968            0           0           0
     11.590753  5.721772  0.948016            0           0           0
      6.503789  5.696041  0.910522            0           0           0
      7.712777  6.454929  2.810380            0           0           0
      6.431551  4.207157  2.837884            0           0           0
     10.363454  3.381645  6.994364            0           0           0
     10.365531  3.543965  0.904545            0           0           0
     10.236619  0.466792  4.915867            0           0           0
      9.064077  7.340275  4.950593            0           0           0
      6.483441  7.273487  4.944283            0           0           0
      5.048274  0.310346  4.875506            0           0           0
     11.647097  7.564000 10.496867     0.080267    0.758954    0.482856
     11.731937  5.491013 10.413274     0.378839    0.202160   -0.002786

   5 f/i=    2.928941 THz    18.403080 2PiTHz   97.698958 cm-1    12.113131 meV
             X         Y         Z           dx          dy          dz
     12.962551  7.995481  6.969036            0           0           0
      5.118166  8.054962  6.948661            0           0           0
      5.034715  3.452827  7.033740            0           0           0
     14.336246  8.760992  9.313200            0           0           0
      3.769165  4.177179  9.372690            0           0           0
      6.417796  8.756626  9.271778            0           0           0
     11.680744  4.125252  9.338148            0           0           0
      9.026870  8.755687  9.186800            0           0           0
     10.355772  1.900534  9.275349            0           0           0
      2.454737  1.889779  9.292364            0           0           0
     11.663932  8.813381  9.387403            0           0           0
     13.038767  6.464764  9.524950            0           0           0
      5.060246  1.909041  9.397188            0           0           0
      7.719624  6.481330  9.391635            0           0           0
      9.036911  4.185019  9.309987            0           0           0
      5.086236  6.475998  9.370588            0           0           0
      7.728158  1.904282  9.336394            0           0           0
      7.813277  3.383662  6.983387            0           0           0
      6.327603  1.107704  6.943351            0           0           0
      6.427482  1.119509  0.843789            0           0           0
      3.744575  4.224976  2.802947            0           0           0
      1.137891  1.227345  6.889478            0           0           0
      1.053506  1.233006  0.757137            0           0           0
      6.379696  8.732318  2.895796            0           0           0
      6.402117  4.201752  9.382572            0           0           0
      7.715193  4.989863  4.841883            0           0           0
     10.303317  6.479850  9.440633            0           0           0
     14.366899  7.249662  4.787507            0           0           0
     11.622719  5.691477  7.048366            0           0           0
      6.434454  5.770538  7.022174            0           0           0
      3.728800  2.594869  4.899318            0           0           0
     10.407142  4.909645  4.852938            0           0           0
      3.720834  5.711619  7.084067            0           0           0
     13.010760  7.954144  0.822852            0           0           0
      5.070618  7.976644  0.759159            0           0           0
      3.747252  5.772328  0.772685            0           0           0
      7.739055  1.959228  2.918920            0           0           0
      9.045754  8.788967  2.872263            0           0           0
      2.432226  3.469283  7.049001            0           0           0
      2.407877  3.445951  0.736756            0           0           0
     10.298420  1.968233  2.881385            0           0           0
     13.013514  4.988054  4.944101            0           0           0
      3.726238  1.090198  7.019067            0           0           0
      9.042848  5.769916  7.085020            0           0           0
      3.746828  1.152850  0.819592            0           0           0
      9.065133  5.724714  0.925373            0           0           0
      5.212120  3.416365  0.860857            0           0           0
     11.656252  8.704956  2.917869            0           0           0
     11.621509  7.299740  4.901783            0           0           0
     12.899801  6.497445  2.823641            0           0           0
      9.013433  4.186125  2.819185            0           0           0
      7.800358  8.002188  6.948033            0           0           0
      7.810527  7.928589  0.868881            0           0           0
     10.316566  6.548306  2.894722            0           0           0
      2.461657  0.316610  4.927330            0           0           0
      7.751538  3.525426  0.863327            0           0           0
      5.102914  1.899843  2.870690            0           0           0
      5.173495  6.405568  2.772261            0           0           0
      7.654181  0.393883  4.892331            0           0           0
      9.057024  1.141868  7.096415            0           0           0
[...]
      6.395982  2.679971  4.922922            0           0           0
     11.640522  4.178437  2.789004            0           0           0
      2.349716  1.924995  2.861968            0           0           0
     11.590753  5.721772  0.948016            0           0           0
      6.503789  5.696041  0.910522            0           0           0
      7.712777  6.454929  2.810380            0           0           0
      6.431551  4.207157  2.837884            0           0           0
     10.363454  3.381645  6.994364            0           0           0
     10.365531  3.543965  0.904545            0           0           0
     10.236619  0.466792  4.915867            0           0           0
      9.064077  7.340275  4.950593            0           0           0
      6.483441  7.273487  4.944283            0           0           0
      5.048274  0.310346  4.875506            0           0           0
     11.647097  7.564000 10.496867    -0.210671    0.270612    0.154037
     11.731937  5.491013 10.413274    -0.854157    0.297676   -0.201158

   6 f/i=   11.219450 THz    70.493885 2PiTHz  374.240565 cm-1    46.399933 meV
             X         Y         Z           dx          dy          dz
     12.962551  7.995481  6.969036            0           0           0
      5.118166  8.054962  6.948661            0           0           0
      5.034715  3.452827  7.033740            0           0           0
     14.336246  8.760992  9.313200            0           0           0
      3.769165  4.177179  9.372690            0           0           0
      6.417796  8.756626  9.271778            0           0           0
     11.680744  4.125252  9.338148            0           0           0
      9.026870  8.755687  9.186800            0           0           0
     10.355772  1.900534  9.275349            0           0           0
      2.454737  1.889779  9.292364            0           0           0
     11.663932  8.813381  9.387403            0           0           0
     13.038767  6.464764  9.524950            0           0           0
      5.060246  1.909041  9.397188            0           0           0
      7.719624  6.481330  9.391635            0           0           0
      9.036911  4.185019  9.309987            0           0           0
      5.086236  6.475998  9.370588            0           0           0
      7.728158  1.904282  9.336394            0           0           0
      7.813277  3.383662  6.983387            0           0           0
      6.327603  1.107704  6.943351            0           0           0
      6.427482  1.119509  0.843789            0           0           0
      3.744575  4.224976  2.802947            0           0           0
      1.137891  1.227345  6.889478            0           0           0
      1.053506  1.233006  0.757137            0           0           0
      6.379696  8.732318  2.895796            0           0           0
      6.402117  4.201752  9.382572            0           0           0
      7.715193  4.989863  4.841883            0           0           0
     10.303317  6.479850  9.440633            0           0           0
     14.366899  7.249662  4.787507            0           0           0
     11.622719  5.691477  7.048366            0           0           0
      6.434454  5.770538  7.022174            0           0           0
      3.728800  2.594869  4.899318            0           0           0
     10.407142  4.909645  4.852938            0           0           0
      3.720834  5.711619  7.084067            0           0           0
     13.010760  7.954144  0.822852            0           0           0
      5.070618  7.976644  0.759159            0           0           0
      3.747252  5.772328  0.772685            0           0           0
      7.739055  1.959228  2.918920            0           0           0
      9.045754  8.788967  2.872263            0           0           0
      2.432226  3.469283  7.049001            0           0           0
      2.407877  3.445951  0.736756            0           0           0
     10.298420  1.968233  2.881385            0           0           0
     13.013514  4.988054  4.944101            0           0           0
      3.726238  1.090198  7.019067            0           0           0
      9.042848  5.769916  7.085020            0           0           0
      3.746828  1.152850  0.819592            0           0           0
      9.065133  5.724714  0.925373            0           0           0
      5.212120  3.416365  0.860857            0           0           0
     11.656252  8.704956  2.917869            0           0           0
     11.621509  7.299740  4.901783            0           0           0
     12.899801  6.497445  2.823641            0           0           0
      9.013433  4.186125  2.819185            0           0           0
      7.800358  8.002188  6.948033            0           0           0
      7.810527  7.928589  0.868881            0           0           0
     10.316566  6.548306  2.894722            0           0           0
      2.461657  0.316610  4.927330            0           0           0
      7.751538  3.525426  0.863327            0           0           0
      5.102914  1.899843  2.870690            0           0           0
      5.173495  6.405568  2.772261            0           0           0
      7.654181  0.393883  4.892331            0           0           0
      9.057024  1.141868  7.096415            0           0           0
[...]
      6.395982  2.679971  4.922922            0           0           0
     11.640522  4.178437  2.789004            0           0           0
      2.349716  1.924995  2.861968            0           0           0
     11.590753  5.721772  0.948016            0           0           0
      6.503789  5.696041  0.910522            0           0           0
      7.712777  6.454929  2.810380            0           0           0
      6.431551  4.207157  2.837884            0           0           0
     10.363454  3.381645  6.994364            0           0           0
     10.365531  3.543965  0.904545            0           0           0
     10.236619  0.466792  4.915867            0           0           0
      9.064077  7.340275  4.950593            0           0           0
      6.483441  7.273487  4.944283            0           0           0
      5.048274  0.310346  4.875506            0           0           0
     11.647097  7.564000 10.496867     0.974056   -0.009216    0.009022
     11.731937  5.491013 10.413274    -0.219328    0.036768   -0.039890

 Finite differences POTIM=  1.500000000000000E-002
  LATTYP: Found a hexagonal cell.
 ALAT       =    10.5600004196
 C/A-ratio  =     2.0833332505

  Lattice vectors:

 A1 = (   5.2800002098,  -9.1452286274,   0.0000000000)
 A2 = ( -10.5600004196,   0.0000000000,   0.0000000000)
 A3 = (   0.0000000000,   0.0000000000, -22.0000000000)

Analysis of symmetry for initial positions (statically):
 Subroutine PRICEL returns:
 Original cell was already a primitive cell.

[...]

The static configuration has the point symmetry C_1 .

Analysis of symmetry for dynamics (positions and initial velocities):
 Subroutine PRICEL returns:
 Original cell was already a primitive cell.

[...]

The dynamic configuration has the point symmetry C_1 .

Analysis of constrained symmetry for selective dynamics:
 Subroutine PRICEL returns:
 Original cell was already a primitive cell.

[...]

The constrained configuration has the point symmetry C_1 .

Analysis of structural, dynamic, and magnetic symmetry:
 Subroutine PRICEL returns:
 Original cell was already a primitive cell.

 Routine SETGRP: Setting up the symmetry group for a
 hexagonal supercell.

 Subroutine GETGRP returns: Found  1 space group operations
 (whereof  1 operations were pure point group operations)
 out of a pool of 24 trial point group operations.

The magnetic configuration has the point symmetry C_1 .

 Subroutine INISYM returns: Found  1 space group operations
 (whereof  1 operations are pure point group operations),
 and found     1 'primitive' translations

 KPOINTS: mesh auto

Automatic generation of k-mesh.
Space group operators:
 irot       det(A)        alpha          n_x          n_y          n_z        tau_x        tau_y        tau_z
    1     1.000000     0.000001     1.000000     0.000000     0.000000     0.000000     0.000000     0.000000

 Subroutine IBZKPT returns following result:

 Found      4 irreducible k-points:

 Following reciprocal coordinates:
            Coordinates               Weight
  0.000000  0.000000  0.000000      1.000000
  0.500000  0.000000  0.000000      1.000000
  0.000000  0.500000  0.000000      1.000000
  0.500000  0.500000  0.000000      1.000000

 Following cartesian coordinates:
            Coordinates               Weight
  0.000000  0.000000  0.000000      1.000000
  0.047348 -0.027337  0.000000      1.000000
  0.000000  0.054673  0.000000      1.000000
  0.047348  0.027337  0.000000      1.000000

 TETIRR: Found     12 inequivalent tetrahedra from       24
 BZINTS: Fermi energy:  2.068353;777.000000 electrons
         Band energy:-672.857417;  BLOECHL correction: -0.167596