 vasp.5.4.4.18Apr17-6-g9f103f2a35 (build Nov 30 2020 22:55:02) complex

 executed on             LinuxIFC date 2023.09.09  16:08:52

 INCAR:
 POTCAR:    PAW_PBE Pt 04Feb2005
 POTCAR:    PAW_PBE Pt 04Feb2005
   VRHFIN =Pt: s1d9

   TITEL  = PAW_PBE Pt 04Feb2005
   POMASS =  195.080; ZVAL   =   10.000    mass and valenz
   ENMAX  =  230.283; ENMIN  =  172.712 eV

 Optimization of the real space projectors (new method)

 maximal supplied QI-value         = 14.36
 optimisation between [QCUT,QGAM] = [ 11.92, 23.98] = [ 39.79,161.09] Ry
 Optimized for a Real-space Cutoff    1.49 Angstroem

   l    n(q)    QCUT    max X(q) W(low)/X(q) W(high)/X(q)  e(spline)
   2     10    11.920    66.195    0.79E-04    0.18E-03    0.24E-06
   2     10    11.920    64.643    0.81E-04    0.19E-03    0.24E-06
   0     11    11.920    95.520    0.28E-04    0.54E-04    0.18E-06
   0     11    11.920    63.403    0.27E-04    0.52E-04    0.17E-06
   1     10    11.920    19.961    0.18E-04    0.11E-03    0.23E-06
   1     10    11.920    13.289    0.25E-04    0.87E-04    0.19E-06
  PAW_PBE Pt 04Feb2005                  :

 POSCAR: Pt111
  positions in cartesian coordinates
 exchange correlation table for  LEXCH =        8
   RHO(1)=    0.500       N(1)  =     2000
   RHO(2)=  100.500       N(2)  =     4000

 ion  position               nearest neighbor table
   1  0.783  0.871  0.334-  73 2.67  43 2.67  72 2.67   3 2.67   2 2.67  56 2.67  71 2.82  20 2.82
                            55 2.83  35 2.86  27 2.86  34 2.87
   2  0.034  0.871  0.334-  47 2.66  23 2.66   1 2.67  72 2.67   3 2.67  57 2.67  68 2.82  55 2.82
                            65 2.83  27 2.87  39 2.87  29 2.87
   3  0.033  0.620  0.334-   9 2.66  15 2.66  56 2.66   1 2.67   2 2.67  57 2.67  76 2.82  55 2.82
                            12 2.83  35 2.86  28 2.87  39 2.87
   4  0.787  0.868  0.009-  44 2.66  75 2.66  74 2.66   5 2.67  58 2.67   6 2.67  78 2.86  21 2.86
                            19 2.87
   5  0.037  0.868  0.009-  59 2.66  24 2.66   6 2.66   4 2.67  48 2.67  74 2.67  49 2.86  70 2.86
                            78 2.86
   6  0.037  0.618  0.010-  10 2.66  59 2.66   5 2.66  58 2.66  18 2.67   4 2.67  70 2.86  46 2.86
                            21 2.86
   7  0.620  0.202  0.119-  11 2.66  61 2.66  22 2.66  78 2.66  53 2.67  19 2.67  71 2.82  79 2.83
                            80 2.85  42 2.86  44 2.86  74 2.87
   8  0.370  0.952  0.119-  60 2.66  19 2.66  53 2.66  25 2.67  54 2.67  49 2.67  69 2.81  66 2.83
                            26 2.83  16 2.86  24 2.86  75 2.87
   9  0.033  0.371  0.334-   3 2.66  56 2.66  63 2.67  15 2.67  47 2.67  13 2.67  12 2.82  77 2.82
                            62 2.82  33 2.85  30 2.87  28 2.88
  10  0.037  0.368  0.010-  16 2.66  18 2.66   6 2.66  48 2.67  58 2.67  64 2.67  54 2.86  46 2.86
                            45 2.86
  11  0.870  0.202  0.119-   7 2.66  78 2.66  22 2.66  49 2.67  54 2.67  45 2.67  65 2.81  77 2.82
                            79 2.84  64 2.86  74 2.86  48 2.87
  12  0.952  0.536  0.226-  55 2.66  62 2.66  20 2.67  77 2.67  76 2.67  67 2.67  21 2.81  45 2.81
                            46 2.82   9 2.82   3 2.83  56 2.84
  13  0.284  0.120  0.334-  43 2.66  73 2.66  15 2.67  23 2.67  47 2.67   9 2.67  62 2.81  26 2.82
                            69 2.83  33 2.86  31 2.86  36 2.87
  14  0.533  0.621  0.336-  63 2.66  23 2.66  41 2.66  57 2.66  56 2.67  73 2.67  51 2.82  66 2.84
                            52 2.84  67 2.85  38 2.86  37 2.87
  15  0.284  0.371  0.336-  57 2.66  41 2.66   3 2.66  43 2.67   9 2.67  13 2.67  76 2.82  80 2.84
                            62 2.84  36 2.84  28 2.86  50 2.88
  16  0.287  0.118  0.010-  10 2.66  48 2.66  18 2.66  24 2.66  75 2.67  44 2.67   8 2.86  53 2.86
                            54 2.87
  17  0.537  0.618  0.009-  58 2.66  75 2.66  64 2.66  42 2.67  24 2.67  59 2.67  22 2.86  25 2.86
                            60 2.87
  18  0.287  0.368  0.010-  10 2.66  16 2.66  42 2.67  44 2.67   6 2.67  59 2.67  53 2.86  61 2.86
                            46 2.87
  19  0.620  0.952  0.119-  53 2.66   8 2.66  25 2.66  21 2.67   7 2.67  78 2.67  20 2.82  71 2.82
                            69 2.82  44 2.86  75 2.86   4 2.87
  20  0.701  0.786  0.227-  69 2.67  12 2.67  55 2.67  71 2.67  67 2.67  66 2.67  56 2.82  19 2.82
                            25 2.82   1 2.82  73 2.83  21 2.83
  21  0.870  0.702  0.119-  70 2.66  25 2.66  78 2.66  45 2.67  46 2.67  19 2.67  12 2.81  55 2.82
                            20 2.83  58 2.86   4 2.86   6 2.86
  22  0.620  0.452  0.119-  11 2.66  45 2.66   7 2.66  60 2.67  61 2.67  25 2.67  79 2.82  67 2.83
                            17 2.86  42 2.86  51 2.86  64 2.87
  23  0.284  0.870  0.335-  14 2.66  57 2.66   2 2.66  73 2.66  47 2.67  13 2.67  68 2.83  26 2.83
                            66 2.83  31 2.85  29 2.86  37 2.88
  24  0.287  0.868  0.009-   5 2.66  48 2.66  16 2.66  59 2.67  75 2.67  17 2.67  60 2.86   8 2.86
                            49 2.87
  25  0.620  0.702  0.119-  19 2.66  60 2.66  45 2.66  21 2.66   8 2.67  22 2.67  20 2.82  67 2.83
                            66 2.84  17 2.86  75 2.86  58 2.87
  26  0.202  0.036  0.227-  65 2.66  69 2.66  66 2.67  68 2.67  77 2.67  62 2.67  54 2.82  13 2.82
                            49 2.82  47 2.82  23 2.83   8 2.83
  27  0.866  0.955  0.444-  40 2.66  32 2.66  39 2.66  29 2.66  35 2.66  34 2.67  72 2.86   1 2.86
                             2 2.87
  28  0.116  0.455  0.445-  30 2.66  35 2.66  33 2.66  39 2.67  50 2.67  36 2.67  15 2.86   3 2.87
                             9 2.88
  29  0.116  0.955  0.444-  32 2.66  27 2.66  39 2.66  33 2.67  37 2.67  31 2.67  23 2.86  47 2.87
                             2 2.87
  30  0.866  0.455  0.444-  28 2.66  35 2.66  38 2.66  33 2.66  52 2.67  32 2.67  63 2.86  56 2.86
                             9 2.87
  31  0.366  0.955  0.444-  36 2.66  34 2.66  52 2.67  33 2.67  37 2.67  29 2.67  23 2.85  13 2.86
                            73 2.87
  32  0.866  0.205  0.444-  29 2.66  33 2.66  27 2.66  38 2.66  40 2.67  30 2.67  63 2.85  72 2.87
                            47 2.87
  33  0.116  0.205  0.443-  32 2.66  36 2.66  30 2.66  28 2.66  29 2.67  31 2.67   9 2.85  47 2.86
                            13 2.86
  34  0.616  0.955  0.444-  40 2.66  36 2.66  52 2.66  31 2.66  35 2.67  27 2.67  43 2.86  73 2.86
                             1 2.87
  35  0.866  0.705  0.444-  52 2.66  39 2.66  30 2.66  28 2.66  27 2.66  34 2.67   1 2.86   3 2.86
                            56 2.86
  36  0.366  0.205  0.444-  31 2.66  34 2.66  33 2.66  50 2.67  40 2.67  28 2.67  15 2.84  13 2.87
                            43 2.88
  37  0.366  0.705  0.446-  31 2.67  29 2.67  39 2.67  50 2.67  52 2.67  38 2.67  57 2.86  14 2.87
                            23 2.88
  38  0.616  0.455  0.446-  32 2.66  30 2.66  40 2.67  52 2.67  37 2.67  50 2.67  14 2.86  41 2.86
                            63 2.89
  39  0.116  0.705  0.445-  35 2.66  27 2.66  29 2.66  28 2.67  50 2.67  37 2.67  57 2.84   2 2.87
                             3 2.87
  40  0.616  0.205  0.445-  34 2.66  27 2.66  32 2.67  36 2.67  38 2.67  50 2.67  41 2.83  43 2.87
                            72 2.88
  41  0.533  0.371  0.336-  57 2.66  63 2.66  14 2.66  15 2.66  72 2.67  43 2.67  51 2.82  40 2.83
                            80 2.84  79 2.86  38 2.86  50 2.87
  42  0.537  0.368  0.009-  64 2.66  17 2.67  18 2.67  59 2.67  74 2.67  44 2.67   7 2.86  22 2.86
                            61 2.87
  43  0.533  0.121  0.334-  13 2.66  15 2.67   1 2.67  72 2.67  73 2.67  41 2.67  80 2.80  69 2.83
                            71 2.83  34 2.86  40 2.87  36 2.88
  44  0.537  0.118  0.009-   4 2.66  74 2.66  18 2.67  42 2.67  75 2.67  16 2.67  19 2.86   7 2.86
                            53 2.87
  45  0.870  0.452  0.119-  22 2.66  25 2.66  54 2.66  21 2.67  46 2.67  11 2.67  12 2.81  77 2.82
                            67 2.84  58 2.86  64 2.86  10 2.86
  46  0.120  0.452  0.119-  70 2.66  61 2.66  53 2.67  21 2.67  54 2.67  45 2.67  62 2.82  12 2.82
                            76 2.84   6 2.86  10 2.86  18 2.87
  47  0.033  0.120  0.334-   2 2.66  72 2.66  23 2.67  63 2.67  13 2.67   9 2.67  77 2.81  26 2.82
                            65 2.83  33 2.86  29 2.87  32 2.87
  48  0.037  0.118  0.009-  16 2.66  24 2.66  64 2.66  74 2.67  10 2.67   5 2.67  49 2.86  54 2.86
                            11 2.87
  49  0.120  0.952  0.119-  78 2.66  70 2.66  11 2.67  60 2.67  54 2.67   8 2.67  65 2.82  26 2.82
                            68 2.83  48 2.86   5 2.86  24 2.87
  50  0.366  0.455  0.446-  28 2.67  36 2.67  40 2.67  39 2.67  37 2.67  38 2.67  57 2.86  41 2.87
                            15 2.88
  51  0.451  0.536  0.228-  76 2.66  68 2.66  66 2.66  80 2.66  79 2.66  67 2.66  41 2.82  14 2.82
                            57 2.84  60 2.85  61 2.85  22 2.86
  52  0.616  0.705  0.444-  35 2.66  34 2.66  31 2.67  30 2.67  38 2.67  37 2.67  14 2.84  73 2.87
                            56 2.88
  53  0.370  0.202  0.119-  19 2.66   8 2.66  54 2.66  46 2.67   7 2.67  61 2.67  69 2.81  62 2.83
                            80 2.84  18 2.86  16 2.86  44 2.87
  54  0.120  0.202  0.119-  53 2.66  45 2.66   8 2.67  49 2.67  46 2.67  11 2.67  26 2.82  62 2.83
                            77 2.83  10 2.86  48 2.86  16 2.87
  55  0.952  0.786  0.227-  12 2.66  65 2.67  20 2.67  71 2.67  68 2.67  76 2.67   3 2.82   2 2.82
                            78 2.82  21 2.82   1 2.83  70 2.83
  56  0.783  0.620  0.334-   9 2.66  63 2.66   3 2.66  14 2.67  73 2.67   1 2.67  67 2.81  20 2.82
                            12 2.84  30 2.86  35 2.86  52 2.88
  57  0.284  0.620  0.336-  15 2.66  41 2.66  23 2.66  14 2.66   2 2.67   3 2.67  51 2.84  76 2.84
                            39 2.84  68 2.84  50 2.86  37 2.86
  58  0.787  0.618  0.009-  17 2.66  75 2.66   6 2.66  64 2.67  10 2.67   4 2.67  45 2.86  21 2.86
                            25 2.87
  59  0.287  0.618  0.010-   5 2.66   6 2.66  24 2.67  42 2.67  18 2.67  17 2.67  60 2.86  61 2.86
                            70 2.87
  60  0.370  0.702  0.119-   8 2.66  25 2.66  22 2.67  49 2.67  61 2.67  70 2.67  66 2.83  68 2.84
                            51 2.85  59 2.86  24 2.86  17 2.87
  61  0.370  0.452  0.119-  46 2.66   7 2.66  70 2.67  22 2.67  53 2.67  60 2.67  80 2.83  76 2.84
                            51 2.85  18 2.86  59 2.86  42 2.87
  62  0.202  0.286  0.227-  80 2.66  76 2.66  69 2.66  12 2.66  77 2.67  26 2.67  13 2.81  46 2.82
                             9 2.82  54 2.83  53 2.83  15 2.84
  63  0.783  0.371  0.335-  14 2.66  41 2.66  56 2.66  72 2.66   9 2.67  47 2.67  67 2.82  79 2.83
                            77 2.84  32 2.85  30 2.86  38 2.89
  64  0.787  0.368  0.009-  74 2.66  17 2.66  42 2.66  48 2.66  58 2.67  10 2.67  11 2.86  45 2.86
                            22 2.87
  65  0.952  0.036  0.226-  26 2.66  77 2.66  55 2.67  71 2.67  79 2.67  68 2.67  11 2.81  78 2.81
                            49 2.82  47 2.83   2 2.83  72 2.84
  66  0.451  0.786  0.227-  67 2.66  51 2.66  68 2.66  26 2.67  20 2.67  69 2.67  73 2.81  60 2.83
[...]

 FORCES acting on ions
    electron-ion (+dipol)            ewald-force                    non-local-force                 convergence-correction
   0.234E-01 -.128E+00 -.135E+04   -.181E-01 0.129E+00 0.135E+04   0.218E-02 -.660E-02 0.455E+00   -.107E-01 0.730E-02 -.112E-03
   0.848E-02 -.948E+00 -.135E+04   -.592E-02 0.944E+00 0.135E+04   0.293E-03 0.778E-02 0.478E+00   -.462E-02 0.695E-02 -.265E-02
   0.731E+00 0.293E+00 -.135E+04   -.727E+00 -.296E+00 0.135E+04   -.329E-02 -.128E-02 0.469E+00   -.750E-02 0.240E-02 -.203E-02
   0.167E+00 0.423E+00 0.268E+04   -.141E+00 -.438E+00 -.268E+04   -.218E-01 0.629E-02 -.277E+00   -.840E-02 0.710E-02 -.311E-02
   -.868E+00 0.171E+01 0.268E+04   0.896E+00 -.172E+01 -.268E+04   -.174E-01 -.394E-02 -.251E+00   0.968E-03 0.123E-02 0.821E-03
   -.165E+01 0.843E+00 0.268E+04   0.167E+01 -.870E+00 -.268E+04   0.144E-02 0.193E-01 -.251E+00   -.342E-02 -.337E-04 0.134E-02
   0.597E-01 -.127E+01 0.136E+04   -.486E-01 0.130E+01 -.136E+04   0.884E-02 -.271E-01 -.449E+00   -.377E-02 -.152E-01 -.111E-01
   -.594E+00 0.714E+00 0.136E+04   0.576E+00 -.745E+00 -.136E+04   0.389E-01 0.221E-01 -.450E+00   0.144E-01 0.175E-01 0.395E-02
   0.179E+00 -.658E+00 -.135E+04   -.185E+00 0.674E+00 0.135E+04   0.763E-02 -.462E-02 0.475E+00   -.165E-02 0.304E-02 -.657E-02
   -.135E+01 -.504E+00 0.268E+04   0.135E+01 0.486E+00 -.268E+04   0.237E-02 0.208E-01 -.256E+00   0.903E-02 -.744E-02 0.413E-02
   0.138E+01 -.255E+00 0.136E+04   -.139E+01 0.264E+00 -.136E+04   -.145E-01 -.197E-01 -.437E+00   0.291E-02 -.132E-01 0.335E-02
   -.140E+00 -.171E+00 0.525E+01   0.148E+00 0.147E+00 -.526E+01   -.829E-02 0.313E-01 0.262E-01   -.507E-02 0.604E-03 -.719E-02
   -.606E+00 0.529E+00 -.135E+04   0.598E+00 -.514E+00 0.135E+04   0.330E-02 -.920E-02 0.475E+00   0.141E-01 -.911E-02 -.124E-01
   -.160E+00 0.163E+00 -.137E+04   0.140E+00 -.164E+00 0.137E+04   0.564E-02 -.111E-02 0.377E+00   0.492E-02 0.130E-02 0.136E-01
   0.690E-01 0.169E+00 -.136E+04   -.641E-01 -.139E+00 0.136E+04   -.943E-02 -.150E-01 0.416E+00   0.671E-02 -.106E-01 0.160E-02
   -.269E+00 -.766E+00 0.268E+04   0.278E+00 0.748E+00 -.268E+04   -.403E-02 0.205E-01 -.249E+00   -.389E-02 0.296E-02 0.879E-02
   0.885E+00 0.211E+00 0.268E+04   -.891E+00 -.246E+00 -.268E+04   0.179E-02 0.239E-01 -.239E+00   0.120E-01 0.764E-02 0.116E-02
   -.634E+00 -.157E+01 0.268E+04   0.650E+00 0.155E+01 -.268E+04   -.726E-02 0.399E-01 -.263E+00   -.859E-02 -.803E-02 0.517E-02
   0.105E+01 -.473E+00 0.136E+04   -.103E+01 0.464E+00 -.136E+04   -.301E-01 0.141E-01 -.479E+00   -.177E-01 0.873E-02 0.514E-02
   0.175E+00 0.191E+00 0.353E+01   -.182E+00 -.216E+00 -.356E+01   0.240E-01 0.164E-01 0.164E-03   -.239E-02 0.134E-01 0.118E-01
   -.297E+00 0.989E+00 0.136E+04   0.312E+00 -.101E+01 -.136E+04   -.314E-02 -.209E-01 -.477E+00   -.488E-02 -.302E-02 -.871E-04
   0.139E+01 -.688E+00 0.135E+04   -.142E+01 0.695E+00 -.135E+04   0.254E-01 -.145E-01 -.461E+00   0.985E-02 -.638E-02 -.255E-01
   -.844E-01 -.142E+00 -.136E+04   0.643E-01 0.128E+00 0.136E+04   0.700E-02 0.163E-01 0.438E+00   0.109E-01 -.594E-03 0.279E-03
   0.495E+00 0.173E+01 0.268E+04   -.479E+00 -.173E+01 -.268E+04   -.229E-01 -.160E-01 -.263E+00   0.131E-03 0.106E-01 0.399E-02
   0.108E+01 0.251E+00 0.136E+04   -.110E+01 -.289E+00 -.136E+04   0.147E-01 0.273E-01 -.460E+00   0.825E-02 0.163E-01 -.120E-01
   -.227E+00 0.669E+00 0.183E+01   0.209E+00 -.682E+00 -.186E+01   0.855E-02 0.141E-01 0.151E-01   0.116E-01 0.688E-02 -.123E-02
   0.611E+00 -.537E-01 -.267E+04   -.606E+00 0.776E-01 0.267E+04   -.330E-02 -.298E-01 0.254E+00   -.827E-02 0.338E-02 -.511E-02
   0.417E+01 0.993E+00 -.268E+04   -.416E+01 -.967E+00 0.268E+04   -.712E-02 -.249E-01 0.261E+00   0.909E-03 0.747E-03 0.118E-02
   0.111E+01 -.392E+01 -.268E+04   -.111E+01 0.392E+01 0.268E+04   0.535E-02 0.636E-02 0.260E+00   -.425E-03 -.164E-02 -.924E-03
   -.231E+01 0.126E+01 -.267E+04   0.230E+01 -.124E+01 0.267E+04   0.144E-01 -.282E-01 0.247E+00   -.686E-02 0.499E-02 0.299E-03
   -.937E+00 -.296E+01 -.267E+04   0.909E+00 0.297E+01 0.267E+04   0.181E-01 0.108E-02 0.254E+00   0.739E-02 -.524E-02 -.542E-02
   -.239E+01 0.257E+01 -.267E+04   0.237E+01 -.254E+01 0.267E+04   0.206E-01 -.334E-01 0.247E+00   -.728E-02 0.315E-02 -.273E-02
   0.919E+00 0.677E+00 -.267E+04   -.930E+00 -.646E+00 0.267E+04   0.102E-01 -.274E-01 0.234E+00   0.257E-03 -.894E-03 -.451E-02
   -.992E+00 0.967E+00 -.267E+04   0.969E+00 -.932E+00 0.267E+04   0.233E-01 -.380E-01 0.257E+00   0.255E-02 -.392E-03 -.966E-02
   0.704E+00 -.138E+01 -.267E+04   -.703E+00 0.138E+01 0.267E+04   0.372E-02 -.550E-02 0.252E+00   -.637E-02 0.758E-02 -.475E-02
   0.229E+01 0.367E+01 -.268E+04   -.230E+01 -.361E+01 0.268E+04   0.302E-02 -.428E-01 0.255E+00   0.741E-02 -.447E-02 -.501E-02
   -.815E+00 -.453E+01 -.269E+04   0.790E+00 0.452E+01 0.269E+04   0.160E-01 0.144E-01 0.277E+00   0.658E-02 -.511E-02 -.307E-02
   -.462E+01 0.240E+01 -.269E+04   0.459E+01 -.237E+01 0.269E+04   0.311E-01 -.229E-01 0.280E+00   0.298E-03 -.650E-03 -.516E-02
   0.458E+01 -.372E+01 -.268E+04   -.455E+01 0.371E+01 0.268E+04   -.251E-01 0.112E-01 0.221E+00   -.668E-03 0.830E-03 0.639E-03
   -.104E+01 0.607E+01 -.268E+04   0.102E+01 -.600E+01 0.268E+04   0.117E-01 -.738E-01 0.227E+00   -.287E-04 -.160E-02 -.492E-02
   -.342E+00 0.416E-01 -.137E+04   0.335E+00 -.210E-01 0.137E+04   0.237E-02 -.257E-02 0.367E+00   0.216E-02 -.619E-02 0.146E-01
   0.731E+00 -.109E+01 0.268E+04   -.707E+00 0.109E+01 -.268E+04   -.126E-01 -.228E-02 -.240E+00   -.181E-02 -.102E-01 0.147E-02
   0.409E+00 0.613E+00 -.135E+04   -.413E+00 -.585E+00 0.135E+04   -.692E-02 -.216E-01 0.481E+00   -.618E-03 -.778E-02 -.954E-02
   0.170E+00 -.126E+01 0.268E+04   -.154E+00 0.126E+01 -.268E+04   -.181E-02 0.799E-02 -.252E+00   -.592E-03 -.958E-02 0.398E-02
   0.562E+00 -.101E+01 0.136E+04   -.576E+00 0.998E+00 -.136E+04   0.141E-01 0.301E-01 -.451E+00   0.132E-01 0.501E-03 0.413E-02
   -.983E+00 -.917E+00 0.135E+04   0.102E+01 0.911E+00 -.135E+04   -.406E-01 0.315E-01 -.460E+00   -.118E-01 -.753E-02 -.485E-02
   0.761E+00 0.328E+00 -.135E+04   -.772E+00 -.320E+00 0.135E+04   0.372E-02 -.882E-02 0.474E+00   -.512E-02 -.234E-02 -.706E-02
   -.573E+00 0.421E+00 0.268E+04   0.578E+00 -.430E+00 -.268E+04   -.764E-02 0.370E-03 -.254E+00   0.937E-02 -.266E-02 0.292E-02
   0.410E+00 0.110E+01 0.136E+04   -.395E+00 -.113E+01 -.136E+04   -.372E-01 0.207E-01 -.452E+00   -.134E-02 0.149E-01 -.240E-02
   0.259E+01 0.220E+01 -.269E+04   -.260E+01 -.217E+01 0.269E+04   -.568E-03 -.244E-01 0.287E+00   0.650E-02 -.453E-02 -.372E-02
   0.742E-01 -.859E-01 -.155E+02   -.850E-01 0.814E-01 0.156E+02   0.104E-01 0.138E-01 -.992E-01   0.503E-02 -.947E-03 0.205E-01
   -.466E+01 -.252E+01 -.268E+04   0.461E+01 0.252E+01 0.268E+04   0.459E-01 0.787E-02 0.222E+00   0.146E-02 0.751E-03 -.453E-02
   -.623E+00 -.470E+00 0.136E+04   0.644E+00 0.492E+00 -.136E+04   -.122E-01 -.296E-01 -.454E+00   -.118E-01 -.227E-01 0.282E-02
   -.716E+00 -.872E-01 0.136E+04   0.715E+00 0.839E-01 -.136E+04   0.663E-02 0.667E-02 -.438E+00   0.101E-01 -.548E-02 0.507E-02
   -.353E+00 0.428E+00 0.269E+01   0.379E+00 -.446E+00 -.272E+01   -.293E-01 0.118E-01 0.348E-02   -.144E-01 0.921E-02 0.925E-02
   -.500E+00 0.410E+00 -.135E+04   0.487E+00 -.417E+00 0.135E+04   0.193E-01 0.103E-02 0.479E+00   -.449E-02 0.695E-02 -.259E-02
   -.305E+00 0.181E-01 -.137E+04   0.299E+00 -.148E-01 0.137E+04   0.125E-02 0.102E-02 0.365E+00   0.839E-02 -.429E-02 0.142E-01
   0.771E+00 -.123E+00 0.268E+04   -.758E+00 0.837E-01 -.268E+04   -.285E-01 0.375E-01 -.252E+00   -.251E-03 0.821E-02 0.146E-03
   0.284E+00 0.549E+00 0.267E+04   -.247E+00 -.575E+00 -.267E+04   -.323E-01 0.186E-01 -.237E+00   -.893E-02 0.657E-02 0.881E-03
   0.197E+00 0.150E+01 0.135E+04   -.199E+00 -.155E+01 -.135E+04   -.241E-02 0.252E-01 -.450E+00   0.835E-02 0.176E-01 -.280E-01
[...]
   0.919E+00 0.118E+00 -.201E+01   -.954E+00 -.137E+00 0.200E+01   0.530E-01 0.137E-01 0.648E-03   0.606E-02 0.510E-02 0.137E-01
   -.719E+00 0.928E+00 -.455E+01   0.725E+00 -.962E+00 0.456E+01   -.183E-01 0.412E-01 -.268E-02   0.596E-02 0.110E-01 0.961E-02
   -.336E-01 -.309E+00 0.628E+01   0.116E-01 0.323E+00 -.630E+01   0.229E-01 -.982E-02 0.381E-01   0.182E-02 0.211E-03 -.770E-02
   -.705E+00 0.911E+00 0.135E+04   0.746E+00 -.943E+00 -.135E+04   -.424E-01 0.255E-01 -.455E+00   -.109E-01 0.697E-02 -.202E-01
   0.572E-01 -.483E+00 0.465E+01   -.421E-01 0.503E+00 -.468E+01   -.434E-02 -.298E-01 0.125E-01   -.123E-01 -.317E-02 0.110E-01
   -.637E+00 0.317E+00 -.135E+04   0.633E+00 -.295E+00 0.135E+04   0.149E-01 -.202E-01 0.482E+00   -.739E-02 -.459E-03 -.318E-02
   -.106E+00 -.674E+00 -.135E+04   0.867E-01 0.671E+00 0.135E+04   0.111E-01 0.846E-02 0.487E+00   0.552E-02 0.511E-02 -.814E-02
   0.958E+00 -.922E+00 0.268E+04   -.920E+00 0.921E+00 -.268E+04   -.439E-01 0.109E-01 -.251E+00   -.532E-02 -.458E-02 0.101E-02
   0.506E+00 0.761E+00 0.268E+04   -.508E+00 -.777E+00 -.268E+04   0.424E-02 -.419E-02 -.251E+00   0.565E-02 0.390E-02 0.481E-02
   -.930E+00 0.200E+00 -.784E+01   0.959E+00 -.202E+00 0.787E+01   -.495E-01 0.127E-01 -.283E-01   -.562E-02 -.832E-02 0.104E-01
   0.702E+00 -.311E+00 0.336E+01   -.718E+00 0.316E+00 -.341E+01   0.110E-01 -.466E-02 0.307E-01   0.592E-02 -.669E-02 -.323E-03
   -.766E+00 -.363E+00 0.136E+04   0.786E+00 0.354E+00 -.136E+04   0.143E-01 0.171E-01 -.471E+00   0.174E-02 0.871E-02 0.128E-02
   0.278E+00 -.814E+00 -.130E+01   -.291E+00 0.844E+00 0.128E+01   0.337E-01 -.415E-01 0.905E-02   -.410E-03 -.107E-01 0.144E-01
   -.105E+00 -.906E+00 -.619E+01   0.117E+00 0.948E+00 0.621E+01   -.223E-01 -.470E-01 -.150E-01   -.653E-02 -.202E-01 0.136E-01
   0.300E-01 0.290E-01 0.390E-01   -.329E-12 0.702E-13 0.746E-12   -.391E-01 -.159E-01 -.118E+00   0.249E-03 -.107E-03 -.323E-01

 POSITION                                       TOTAL-FORCE (eV/Angst)
     12.99184      8.03724      7.35276        -0.002296      0.001651     -0.014903
      4.99692      8.03629      7.35447         0.001350      0.009854      0.009912
      3.66417      5.72891      7.35984        -0.004022     -0.004230      0.009412
     13.01778      8.01017      0.20217        -0.004275     -0.001051     -0.013324
      5.02243      8.01010      0.20560         0.011991     -0.008744     -0.000964
      3.68970      5.70196      0.20934         0.020934     -0.007603      0.001015
      7.67947      1.86324      2.62067         0.016532     -0.007904     -0.004469
      9.01078      8.78292      2.61956         0.034038      0.009927     -0.006756
      2.33188      3.42247      7.35174        -0.000305      0.012637      0.013101
      2.35748      3.39388      0.21000         0.013688     -0.004648     -0.015245
     10.34477      1.86288      2.61548        -0.013148     -0.023509     -0.007222
     13.00030      4.94848      4.98133        -0.004706      0.005182      0.012316
      3.66598      1.11252      7.35110         0.006785     -0.002154      0.009088
      8.99371      5.72851      7.39117        -0.010839     -0.002890     -0.030157
      4.99885      3.42263      7.38046         0.000919      0.003742     -0.010393
      3.68997      1.08569      0.20900        -0.000250      0.006116     -0.010078
      9.01978      5.70191      0.20684         0.007771     -0.003893      0.022180
      5.02270      3.39292      0.21171        -0.000246      0.010794     -0.000672
     11.67880      8.78448      2.61643        -0.035041      0.014857     -0.010169
     11.66631      7.25603      4.98574         0.012744      0.003374     -0.009656
     13.01054      6.47849      2.61852         0.007314     -0.042399     -0.006202
      9.01088      4.17047      2.62678         0.007728     -0.014366      0.013346
      7.66188      8.03420      7.37100        -0.002407      0.002536     -0.009266
      7.68795      8.01070      0.20634        -0.007148     -0.010696     -0.002282
     10.34419      6.47606      2.62190         0.000533      0.003943     -0.006957
      2.33982      0.33009      4.98829         0.001703      0.010257     -0.014719
     14.32000      8.81742      9.76563        -0.005589     -0.002345      0.001395
      3.65874      4.20135      9.78396         0.003782     -0.000881     -0.002501
      6.32417      8.81621      9.77410        -0.001138      0.003306     -0.000010
     11.65519      4.20139      9.77341        -0.007116     -0.001981     -0.005639
      8.98989      8.81620      9.77318        -0.003318      0.003277      0.000166
     10.32219      1.89249      9.76752        -0.002710      0.003574     -0.000183
      2.32696      1.89276      9.75385        -0.001310      0.002075      0.018678
     11.65396      8.81751      9.76696         0.001866     -0.002480      0.002795
     12.98703      6.50895      9.76806        -0.001604      0.000501      0.003700
      4.99169      1.89222      9.77807         0.001400      0.006034      0.000671
      7.65712      6.50846      9.81330        -0.002468      0.003414     -0.004600
      8.99037      4.20033      9.81167        -0.005516      0.004975     -0.004804
      4.99158      6.50875      9.78088         0.003044      0.000921      0.003230
      7.65713      1.89272      9.78008        -0.002236      0.003790     -0.001579
      7.66202      3.42212      7.39499        -0.002963      0.013295     -0.029702
      7.68753      3.39487      0.20648         0.009399     -0.007466      0.023708
      6.33007      1.11374      7.35559        -0.011955      0.001568      0.007552
      6.35480      1.08617      0.20444         0.013472      0.003212      0.000142
     11.67628      4.16863      2.61876         0.013462      0.015306     -0.012214
      3.68610      4.16838      2.62517        -0.016171      0.016205     -0.010042
      0.99893      1.11234      7.34762        -0.010457     -0.002607      0.008542
      1.02503      1.08648      0.20521         0.006298     -0.010610     -0.013306
      6.34938      8.78296      2.61942        -0.023513      0.005450     -0.013692
      6.32406      4.20042      9.82043         0.001169      0.003891     -0.002903
      7.66972      4.94825      5.02224         0.003848      0.007860      0.035427
     10.32259      6.50887      9.77748        -0.007470     -0.001057     -0.001407
      5.01675      1.86315      2.62293        -0.003995     -0.028434     -0.006252
      2.35008      1.86094      2.62148         0.014544     -0.001793     -0.021360
     14.33322      7.25617      4.98731        -0.013891      0.000936     -0.007361
     11.65853      5.72914      7.35369         0.001001     -0.002513      0.007157
      6.33035      5.72823      7.39719         0.004494     -0.001259     -0.026636
     11.68590      5.70158      0.20519        -0.016038      0.005546     -0.001285
      6.35564      5.70172      0.21090        -0.003906     -0.001333      0.022063
      7.68052      6.47499      2.62939         0.002921     -0.005354      0.027089
[...]
      9.00076      7.25300      4.99797         0.006060      0.017313      0.011042
     10.33093      4.94908      4.99521         0.022600     -0.003084      0.010300
      6.33859      7.25266      5.00034        -0.004575      0.017580      0.016170
      5.00481      0.33237      4.97963         0.001211      0.006243      0.010031
      5.01785      6.47563      2.62659        -0.010210     -0.000563     -0.004031
      7.66968      0.33376      4.98341        -0.000323     -0.009871     -0.004335
      8.99366      1.11369      7.35069         0.006115      0.003405      0.006566
     10.32696      8.03638      7.35308        -0.004872      0.010270      0.008020
      9.02090      1.08599      0.20092        -0.010915      0.006197      0.001647
     10.35218      8.01040      0.20338         0.007543     -0.015566      0.003049
      5.00898      4.94884      5.00722        -0.024108     -0.000106      0.017553
     11.66573      2.64185      4.98485         0.001411     -0.006855     -0.015311
     14.34168      8.78438      2.61562         0.036943      0.017846     -0.009987
      8.99924      2.64366      4.99392         0.021324     -0.021004      0.007862
      6.33979      2.64394      5.00377        -0.017069     -0.022731      0.015460
    total drift:                               -0.008922      0.013001     -0.111418

  FREE ENERGIE OF THE ION-ELECTRON SYSTEM (eV)
  free  energy   TOTEN  =      -514.31709177 eV

  energy  without entropy=     -514.26850641  energy(sigma->0) =     -514.30089665

 d Force = 0.4030169E-03[ 0.672E-04, 0.739E-03]  d Energy = 0.3951673E-03 0.785E-05
 d Force = 0.1786194E+01[ 0.178E+01, 0.179E+01]  d Ewald  = 0.1786195E+01-0.367E-06

 reached required accuracy - stopping structural energy minimisation