 vasp.5.4.4.18Apr17-6-g9f103f2a35 (build Nov 30 2020 22:55:02) complex

 executed on             LinuxIFC date 2023.07.29  23:16:57

 INCAR:
 POTCAR:    PAW_PBE Pt 04Feb2005
 POTCAR:    PAW_PBE Cu 22Jun2005
 POTCAR:    PAW_PBE Ni 02Aug2007
 POTCAR:    PAW_PBE Fe 06Sep2000
 POTCAR:    PAW_PBE Co 02Aug2007
 POTCAR:    PAW_PBE H 15Jun2001
 POTCAR:    PAW_PBE Pt 04Feb2005
   VRHFIN =Pt: s1d9

   TITEL  = PAW_PBE Pt 04Feb2005
   POMASS =  195.080; ZVAL   =   10.000    mass and valenz
   ENMAX  =  230.283; ENMIN  =  172.712 eV

 POTCAR:    PAW_PBE Cu 22Jun2005
   VRHFIN =Cu: d10 p1

   TITEL  = PAW_PBE Cu 22Jun2005
   POMASS =   63.546; ZVAL   =   11.000    mass and valenz
   ENMAX  =  295.446; ENMIN  =  221.585 eV

 POTCAR:    PAW_PBE Ni 02Aug2007
   VRHFIN =Ni:

   TITEL  = PAW_PBE Ni 02Aug2007
   POMASS =   58.690; ZVAL   =   10.000    mass and valenz
   ENMAX  =  269.532; ENMIN  =  202.149 eV

 POTCAR:    PAW_PBE Fe 06Sep2000
   VRHFIN =Fe:  d7 s1

   TITEL  = PAW_PBE Fe 06Sep2000
   POMASS =   55.847; ZVAL   =    8.000    mass and valenz
   ENMAX  =  267.882; ENMIN  =  200.911 eV

 POTCAR:    PAW_PBE Co 02Aug2007
   VRHFIN =Co: d8 s1

   TITEL  = PAW_PBE Co 02Aug2007
   POMASS =   58.933; ZVAL   =    9.000    mass and valenz
   ENMAX  =  267.968; ENMIN  =  200.976 eV

 POTCAR:    PAW_PBE H 15Jun2001
   VRHFIN =H: ultrasoft test

   TITEL  = PAW_PBE H 15Jun2001
   POMASS =    1.000; ZVAL   =    1.000    mass and valenz
   ENMAX  =  250.000; ENMIN  =  200.000 eV

 Optimization of the real space projectors (new method)

 maximal supplied QI-value         = 14.36
 optimisation between [QCUT,QGAM] = [ 11.92, 23.98] = [ 39.79,161.09] Ry
 Optimized for a Real-space Cutoff    1.49 Angstroem

   l    n(q)    QCUT    max X(q) W(low)/X(q) W(high)/X(q)  e(spline)
   2     10    11.920    66.195    0.79E-04    0.18E-03    0.24E-06
   2     10    11.920    64.643    0.81E-04    0.19E-03    0.24E-06
   0     11    11.920    95.520    0.28E-04    0.54E-04    0.18E-06
   0     11    11.920    63.403    0.27E-04    0.52E-04    0.17E-06
   1     10    11.920    19.961    0.18E-04    0.11E-03    0.23E-06
   1     10    11.920    13.289    0.25E-04    0.87E-04    0.19E-06
 Optimization of the real space projectors (new method)

[...]

   l    n(q)    QCUT    max X(q) W(low)/X(q) W(high)/X(q)  e(spline)
   2      9    11.864    65.824    0.22E-03    0.53E-03    0.26E-06
   2      9    11.864    61.429    0.22E-03    0.53E-03    0.26E-06
   0      9    11.864    56.174    0.21E-03    0.32E-04    0.15E-06
   0      9    11.864    31.263    0.19E-03    0.30E-04    0.14E-06
   1      9    11.864    19.828    0.63E-04    0.30E-03    0.16E-06
   1      9    11.864    15.139    0.49E-04    0.25E-03    0.13E-06
 Optimization of the real space projectors (new method)

 maximal supplied QI-value         = 34.20
 optimisation between [QCUT,QGAM] = [ 11.97, 23.94] = [ 40.13,160.53] Ry
 Optimized for a Real-space Cutoff    1.18 Angstroem

   l    n(q)    QCUT    max X(q) W(low)/X(q) W(high)/X(q)  e(spline)
   0      8    11.971    19.460    0.15E-03    0.31E-03    0.25E-06
   0      8    11.971    12.209    0.13E-03    0.29E-03    0.25E-06
   1      8    11.971     4.655    0.22E-03    0.24E-03    0.21E-06
  PAW_PBE Pt 04Feb2005                  :
  PAW_PBE Cu 22Jun2005                  :
  PAW_PBE Ni 02Aug2007                  :
  PAW_PBE Fe 06Sep2000                  :
  PAW_PBE Co 02Aug2007                  :
  PAW_PBE H 15Jun2001                   :

 POSCAR: 10.56
  positions in direct lattice
  velocities in cartesian coordinates
 exchange correlation table for  LEXCH =        8
   RHO(1)=    0.500       N(1)  =     2000
   RHO(2)=  100.500       N(2)  =     4000

 ion  position               nearest neighbor table
   1  0.790  0.877  0.316-  49 2.55  59 2.56  19 2.63  33 2.66  61 2.67  60 2.67  29 2.68  28 2.69
                             2 2.71   4 2.81  11 2.84  12 2.86
   2  0.044  0.882  0.316-  79 2.55  77 2.56  60 2.62  30 2.64  22 2.65  28 2.66  52 2.68   1 2.71
                            33 2.74   6 2.78   4 2.86  16 2.90
   3  0.287  0.379  0.320-  64 2.57  39 2.60  33 2.60  68 2.64  31 2.65  19 2.68  43 2.69  30 2.71
                            18 2.78   5 2.79  25 2.82  13 2.82
   4  0.869  0.962  0.424-  17 2.61  11 2.62  12 2.66  60 2.68   9 2.68  16 2.72   6 2.76   1 2.81
                             2 2.86
   5  0.124  0.459  0.427-  10 2.60  16 2.61   7 2.62  12 2.63  13 2.63  25 2.67  39 2.78  33 2.79
                             3 2.79
   6  0.129  0.964  0.421-   8 2.59  10 2.60  14 2.66   9 2.68  16 2.75   4 2.76   2 2.78  52 2.80
                            22 2.85
   7  0.875  0.460  0.423-   9 2.61  12 2.61   5 2.62  10 2.63  15 2.63  27 2.67  39 2.70  29 2.74
                            75 2.77
   8  0.377  0.960  0.419-   6 2.59  11 2.60  27 2.61  14 2.64  43 2.64  13 2.64  10 2.66  61 2.67
                            52 2.70
   9  0.873  0.214  0.422-  81 1.71   7 2.61  15 2.61  17 2.64  60 2.65  10 2.65   6 2.68  75 2.68
                             4 2.68  22 2.83
  10  0.125  0.212  0.423-   6 2.60   5 2.60  13 2.62   7 2.63   9 2.65   8 2.66  39 2.73  43 2.74
                            22 2.84
  11  0.622  0.961  0.424-   8 2.60   4 2.62  27 2.62  13 2.63  17 2.66  12 2.66  61 2.81  19 2.83
                             1 2.84
  12  0.874  0.708  0.425-   7 2.61   5 2.63  27 2.63  16 2.66   4 2.66  11 2.66  33 2.75  29 2.81
                             1 2.86
  13  0.374  0.210  0.428-  10 2.62  11 2.63   5 2.63   8 2.64  17 2.65  25 2.65   3 2.82  43 2.84
                            19 2.90
  14  0.378  0.710  0.426-  27 2.60  15 2.62   8 2.64  25 2.64   6 2.66  16 2.67  44 2.74  30 2.79
                            52 2.86
  15  0.625  0.461  0.424-  81 1.79   9 2.61  14 2.62   7 2.63  27 2.64  25 2.64  17 2.65  44 2.74
                            18 2.77  75 2.80
  16  0.127  0.705  0.425-  25 2.60   5 2.61  12 2.66  14 2.67   4 2.72   6 2.75  33 2.75  30 2.79
                             2 2.90
  17  0.624  0.211  0.425-  81 1.77   4 2.61  25 2.63   9 2.64  15 2.65  13 2.65  11 2.66  60 2.73
                            18 2.77  19 2.90
  18  0.554  0.371  0.318-  67 2.54  75 2.55  60 2.56  68 2.60  26 2.67  44 2.68  19 2.72  30 2.75
                            15 2.77  17 2.77   3 2.78  25 2.90
  19  0.537  0.122  0.315-  59 2.54  68 2.54  80 2.54  43 2.60  61 2.61   1 2.63   3 2.68  18 2.72
                            60 2.75  11 2.83  13 2.90  17 2.90
  20  0.547  0.122  0.038-  57 2.54  37 2.59  48 2.60  62 2.60  47 2.60  34 2.65  45 2.68  63 2.71
                            56 2.75
  21  0.124  0.462  0.127-  36 2.55  47 2.57  40 2.58  58 2.61  42 2.61  64 2.63  31 2.66  69 2.66
                            50 2.67  74 2.69  70 2.69  57 2.69
  22  0.040  0.135  0.313-  65 2.46  75 2.54  55 2.54  77 2.58  39 2.59  43 2.59  60 2.65   2 2.65
                            52 2.74   9 2.83  10 2.84   6 2.85
  23  0.032  0.135  0.034-  70 2.57  62 2.59  40 2.59  41 2.60  76 2.63  45 2.70  24 2.70  35 2.71
                            53 2.86
  24  0.127  0.955  0.132-  79 2.52  55 2.55  53 2.61  35 2.62  77 2.62  58 2.62  73 2.64  70 2.65
                            38 2.67  66 2.68  23 2.70  41 2.74
  25  0.376  0.461  0.427-  16 2.60  17 2.63  15 2.64  14 2.64  13 2.65   5 2.67   3 2.82  30 2.84
                            18 2.90
  26  0.458  0.546  0.220-  73 2.50  74 2.51  51 2.53  79 2.60  64 2.61  30 2.65  68 2.66  18 2.67
                            32 2.69  44 2.71  78 2.71  67 2.74
  27  0.623  0.712  0.424-  14 2.60   8 2.61  11 2.62  12 2.63  15 2.64   7 2.67  44 2.71  61 2.76
                            29 2.77
  28  0.964  0.793  0.218-  66 2.54  50 2.56  58 2.58  77 2.63  42 2.64  64 2.65   2 2.66  79 2.68
                             1 2.69  59 2.70  33 2.74  49 2.75
  29  0.789  0.624  0.319-  44 2.59  42 2.59  32 2.61  39 2.61  75 2.64  61 2.65  49 2.65  33 2.66
                             1 2.68   7 2.74  27 2.77  12 2.81
  30  0.293  0.632  0.319-  79 2.56  44 2.60  64 2.61  52 2.62   2 2.64  26 2.65  33 2.71   3 2.71
                            18 2.75  14 2.79  16 2.79  25 2.84
  31  0.211  0.284  0.223-  57 2.55  70 2.55  65 2.59  55 2.61  43 2.61  80 2.64   3 2.65  21 2.66
                            68 2.67  39 2.67  42 2.71  64 2.72
  32  0.717  0.537  0.221-  69 2.51  54 2.56  51 2.57  65 2.60  29 2.61  42 2.61  75 2.64  67 2.64
                            49 2.68  26 2.69  44 2.75  78 2.78
  33  0.040  0.625  0.321-  42 2.58  39 2.59   3 2.60  64 2.65   1 2.66  29 2.66  30 2.71   2 2.74
                            28 2.74  12 2.75  16 2.75   5 2.79
  34  0.797  0.870  0.037-  50 2.48  66 2.50  36 2.54  48 2.61  35 2.62  63 2.64  71 2.65  20 2.65
                            62 2.72
  35  0.044  0.872  0.035-  58 2.56  36 2.57  66 2.61  24 2.62  34 2.62  72 2.70  23 2.71  62 2.72
                            53 2.74
  36  0.039  0.631  0.035-  58 2.54  34 2.54  21 2.55  35 2.57  50 2.59  40 2.68  71 2.72  72 2.76
                            47 2.78
  37  0.626  0.214  0.133-  68 2.52  59 2.52  67 2.52  41 2.56  51 2.57  56 2.58  66 2.59  20 2.59
                            74 2.60  62 2.60  57 2.64  48 2.76
  38  0.376  0.961  0.131-  80 2.47  53 2.51  55 2.53  78 2.53  63 2.53  45 2.55  54 2.58  48 2.61
                            57 2.62  24 2.67  70 2.69  73 2.69
  39  0.040  0.380  0.321-  22 2.59  33 2.59   3 2.60  42 2.60  29 2.61  75 2.63  65 2.67  31 2.67
                            43 2.70   7 2.70  10 2.73   5 2.78
  40  0.040  0.377  0.033-  69 2.55  21 2.58  23 2.59  76 2.61  70 2.61  45 2.66  71 2.67  36 2.68
                            47 2.81
  41  0.868  0.215  0.131-  67 2.47  65 2.53  76 2.53  77 2.53  37 2.56  51 2.56  62 2.57  69 2.59
                            23 2.60  70 2.61  66 2.63  24 2.74
  42  0.960  0.545  0.225-  33 2.58  29 2.59  39 2.60  50 2.61  32 2.61  21 2.61  28 2.64  64 2.65
                            69 2.68  65 2.69  49 2.70  31 2.71
  43  0.292  0.121  0.320-  52 2.54  55 2.58  22 2.59  19 2.60  61 2.60  31 2.61   8 2.64  80 2.66
                             3 2.69  39 2.70  10 2.74  13 2.84
  44  0.540  0.632  0.321-  61 2.56  52 2.56  29 2.59  30 2.60  78 2.63  18 2.68  26 2.71  27 2.71
                            75 2.73  14 2.74  15 2.74  32 2.75
  45  0.292  0.126  0.037-  38 2.55  57 2.57  70 2.59  40 2.66  53 2.66  20 2.68  23 2.70  47 2.70
                            63 2.74
  46  0.545  0.626  0.042-  73 2.43  51 2.44  54 2.47  71 2.53  53 2.54  76 2.54  63 2.55  72 2.56
                            56 2.56
  47  0.307  0.374  0.039-  74 2.45  57 2.52  56 2.54  21 2.57  20 2.60  72 2.62  45 2.70  36 2.78
                            40 2.81
  48  0.628  0.952  0.133-  49 2.43  80 2.48  59 2.50  63 2.52  50 2.54  54 2.54  20 2.60  34 2.61
                            66 2.61  38 2.61  57 2.66  37 2.76
  49  0.701  0.798  0.223-  48 2.43  54 2.51  80 2.51   1 2.55  78 2.56  50 2.57  61 2.58  59 2.60
                            29 2.65  32 2.68  42 2.70  28 2.75
  50  0.866  0.710  0.128-  71 2.42  34 2.48  48 2.54  28 2.56  49 2.57  54 2.58  36 2.59  42 2.61
[...]
   -.115E+03 0.604E+01 -.145E+04   0.115E+03 -.595E+01 0.144E+04   0.249E+00 -.112E+00 0.297E+01   -.503E-02 -.597E-02 -.176E-01
   0.572E+01 -.213E+02 -.286E+04   -.576E+01 0.212E+02 0.286E+04   0.546E-01 0.944E-01 0.122E+01   0.926E-04 0.192E-02 -.162E-01
   -.237E+02 -.332E+01 -.296E+04   0.237E+02 0.332E+01 0.296E+04   0.265E-01 0.150E-01 0.953E+00   -.499E-02 -.547E-02 -.134E-01
   0.358E+02 -.413E+01 -.289E+04   -.357E+02 0.389E+01 0.289E+04   -.151E+00 0.165E+00 0.900E+00   0.676E-02 -.501E-02 -.134E-01
   0.325E+02 0.343E+01 -.291E+04   -.323E+02 -.343E+01 0.291E+04   -.230E+00 -.683E-01 0.122E+01   -.153E-01 0.128E-01 -.111E-01
   -.164E+02 0.432E+01 -.290E+04   0.165E+02 -.459E+01 0.290E+04   -.706E-01 0.313E+00 0.162E+01   -.542E-02 0.171E-01 -.684E-02
   0.197E+02 0.273E+02 -.286E+04   -.192E+02 -.276E+02 0.286E+04   -.606E+00 0.225E+00 0.128E+01   -.204E-01 0.338E-01 -.381E-01
   0.226E+02 0.158E+02 -.293E+04   -.224E+02 -.158E+02 0.293E+04   -.798E-01 0.358E-01 0.733E+00   0.167E-01 -.569E-02 -.777E-02
   -.279E+02 -.107E+02 -.288E+04   0.277E+02 0.107E+02 0.288E+04   0.291E+00 -.173E-01 0.927E+00   -.782E-02 -.578E-02 -.199E-01
   0.643E+01 -.437E+02 -.292E+04   -.621E+01 0.434E+02 0.292E+04   -.194E+00 0.286E+00 0.805E+00   -.205E-01 0.126E-02 0.185E-03
   -.446E+02 0.378E+01 -.292E+04   0.445E+02 -.369E+01 0.292E+04   0.695E-01 -.107E+00 0.675E+00   -.138E-01 0.350E-02 -.129E-01
   0.246E+02 -.118E+00 -.294E+04   -.246E+02 0.836E-01 0.294E+04   -.898E-01 0.294E-01 0.939E+00   -.846E-03 0.117E-01 -.154E-01
   0.116E+02 0.272E+02 -.290E+04   -.116E+02 -.261E+02 0.290E+04   -.256E-01 -.109E+01 0.712E+00   0.226E-01 -.190E-01 -.605E-01
   -.499E+01 -.248E+02 -.291E+04   0.500E+01 0.247E+02 0.291E+04   -.198E-01 0.966E-01 0.784E+00   0.122E-02 0.113E-01 -.878E-02
   0.721E+01 0.167E+02 -.285E+04   -.772E+01 -.172E+02 0.285E+04   0.513E+00 0.516E+00 0.748E+00   0.157E-01 0.129E-01 -.509E-01
   0.426E+02 0.512E+02 -.143E+04   -.407E+02 -.523E+02 0.143E+04   -.185E+01 0.112E+01 0.281E+01   -.270E-02 0.782E-04 -.245E-02
   -.932E+02 -.396E+02 -.142E+04   0.930E+02 0.388E+02 0.141E+04   0.131E+00 0.848E+00 0.346E+01   -.241E-01 -.890E-02 -.106E-01
   -.228E+02 -.239E+02 0.300E+04   0.228E+02 0.242E+02 -.300E+04   -.583E-02 -.274E+00 -.199E+01   -.175E-01 0.153E-02 0.682E-02
   -.730E+02 0.227E+02 0.148E+04   0.736E+02 -.223E+02 -.148E+04   -.569E+00 -.333E+00 -.946E-01   0.164E-01 -.252E-01 0.875E-02
   0.102E+03 0.258E+02 -.140E+04   -.103E+03 -.246E+02 0.140E+04   0.746E+00 -.119E+01 0.298E+01   0.316E-02 -.200E-01 -.284E-01
   0.349E+02 0.500E+02 0.303E+04   -.355E+02 -.488E+02 -.303E+04   0.651E+00 -.117E+01 -.217E+01   0.257E-01 -.162E-01 0.224E-01
   0.906E+02 0.274E+01 0.147E+04   -.907E+02 -.398E+01 -.147E+04   0.653E-01 0.126E+01 -.116E+01   0.357E-01 -.147E-01 0.152E-05
   -.186E+02 0.235E+02 -.288E+04   0.181E+02 -.233E+02 0.288E+04   0.455E+00 -.259E+00 0.768E+00   -.510E-02 -.686E-02 -.135E-01
   0.519E+02 0.644E+02 0.217E+02   -.529E+02 -.644E+02 -.234E+02   0.110E+01 -.973E-01 0.178E+01   -.105E-01 0.318E-01 -.290E-01
   -.267E+02 -.158E+02 -.292E+04   0.264E+02 0.160E+02 0.292E+04   0.350E+00 -.249E+00 0.119E+01   0.180E-01 -.890E-02 -.162E-01
   -.665E+02 -.400E+02 0.117E+03   0.669E+02 0.400E+02 -.118E+03   -.351E+00 -.813E-01 0.178E+01   0.292E-01 -.156E-02 -.318E-02
   0.178E+02 -.402E+02 -.149E+04   -.182E+02 0.402E+02 0.149E+04   0.460E+00 0.349E-01 0.237E+01   -.150E-01 0.283E-02 0.580E-02
   0.359E+02 0.564E+02 -.145E+04   -.359E+02 -.556E+02 0.145E+04   0.147E-02 -.730E+00 0.271E+01   -.316E-02 0.109E-01 -.325E-01
   -.800E+02 -.475E+02 0.808E+02   0.802E+02 0.468E+02 -.818E+02   -.158E+00 0.687E+00 0.105E+01   0.351E-02 -.276E-01 -.262E-01
   0.504E+02 0.530E+02 0.133E+02   -.496E+02 -.540E+02 -.141E+02   -.815E+00 0.104E+01 0.829E+00   -.151E-01 0.184E-01 -.422E-02
   -.730E+02 -.722E+02 -.163E+04   0.730E+02 0.718E+02 0.163E+04   0.523E-01 0.495E+00 0.112E+01   0.770E-02 -.227E-02 -.241E-01
   0.101E+02 -.908E+02 0.332E+04   -.106E+02 0.909E+02 -.332E+04   0.340E+00 -.347E-01 -.233E+01   0.791E-02 0.246E-01 -.190E-02
   -.330E+02 -.508E+02 0.329E+04   0.324E+02 0.505E+02 -.328E+04   0.664E+00 0.422E+00 -.296E+01   0.391E-01 -.129E-01 0.149E-01
   -.548E+02 0.439E+02 0.331E+04   0.549E+02 -.436E+02 -.331E+04   -.168E+00 -.286E+00 -.361E+01   0.501E-01 -.139E-03 0.216E-02
   0.514E+02 0.282E+02 0.158E+04   -.514E+02 -.283E+02 -.158E+04   -.770E-01 -.134E-01 -.136E+01   -.200E-01 0.125E-01 -.129E-01
   0.220E+02 -.663E+02 0.168E+04   -.213E+02 0.661E+02 -.167E+04   -.635E+00 0.169E+00 -.848E+00   -.287E-01 -.256E-02 0.843E-02
   0.128E+02 0.192E+02 -.162E+04   -.131E+02 -.196E+02 0.162E+04   0.426E+00 0.335E+00 0.119E+01   0.243E-02 -.625E-02 -.103E-01
   -.319E+02 0.394E+01 0.335E+04   0.303E+02 -.420E+01 -.335E+04   0.156E+01 0.337E+00 -.326E+01   0.169E-01 -.455E-01 0.167E-01
   0.390E+01 0.816E+02 0.162E+04   -.424E+01 -.813E+02 -.162E+04   0.348E+00 -.401E+00 -.113E+01   0.345E-01 -.180E-01 -.580E-02
   -.588E+02 0.179E+02 0.407E+02   0.586E+02 -.176E+02 -.409E+02   0.189E+00 -.357E+00 -.851E-02   0.120E-01 -.915E-02 -.303E-02
   -.709E+02 -.386E+02 -.163E+04   0.707E+02 0.379E+02 0.163E+04   0.212E+00 0.801E+00 0.174E+01   0.649E-02 -.918E-02 -.337E-01
   0.124E+02 0.778E+02 -.163E+04   -.123E+02 -.770E+02 0.163E+04   -.640E-01 -.892E+00 0.913E+00   0.202E-02 0.855E-02 -.256E-01
   -.373E+02 -.243E+01 0.331E+04   0.378E+02 0.195E+01 -.330E+04   -.426E+00 0.479E+00 -.278E+01   -.161E-01 -.158E-01 0.307E-01
   0.207E+02 0.217E+02 0.304E+04   -.205E+02 -.215E+02 -.304E+04   -.125E+00 -.149E+00 -.616E+00   -.610E-01 0.234E-01 0.233E-01
   -.199E+02 0.582E+01 0.297E+04   0.215E+02 -.594E+01 -.297E+04   -.167E+01 0.122E+00 -.214E+01   0.721E-02 0.352E-02 0.105E-01
   -.665E+02 -.116E+03 0.148E+04   0.666E+02 0.115E+03 -.148E+04   -.888E-01 0.551E+00 -.964E+00   -.379E-01 0.128E-01 0.342E-02
   -.653E+02 -.180E+02 -.515E+02   0.646E+02 0.186E+02 0.508E+02   0.766E+00 -.668E+00 0.612E+00   -.303E-01 0.131E-01 0.186E-02
   -.110E+03 -.457E+00 0.148E+04   0.110E+03 0.846E+00 -.148E+04   0.589E-01 -.428E+00 -.412E+00   0.174E-01 0.118E-01 0.226E-01
   0.426E+02 0.333E+02 0.148E+04   -.426E+02 -.329E+02 -.148E+04   -.569E-01 -.372E+00 0.473E-01   -.284E-01 0.348E-01 -.849E-02
   0.734E+02 0.220E+02 -.147E+04   -.730E+02 -.222E+02 0.147E+04   -.415E+00 0.216E+00 0.163E+01   0.185E-02 0.668E-02 -.384E-01
   0.457E+02 -.350E+02 0.303E+04   -.450E+02 0.337E+02 -.303E+04   -.837E+00 0.128E+01 -.193E+01   -.488E-02 -.172E-01 0.338E-01
   0.180E+02 0.360E+02 0.146E+04   -.175E+02 -.359E+02 -.146E+04   -.446E+00 -.177E+00 -.361E+00   -.613E-01 0.259E-01 0.177E-01
   0.815E+02 -.497E+02 0.413E+02   -.813E+02 0.494E+02 -.412E+02   -.196E+00 0.287E+00 -.160E+00   0.118E-01 -.672E-02 -.308E-01
   0.867E+01 0.564E+02 0.244E+04   -.836E+01 -.559E+02 -.244E+04   -.306E+00 -.539E+00 -.282E+01   -.731E-02 0.223E-01 0.383E-02
   -.200E+02 -.501E+02 0.116E+04   0.201E+02 0.505E+02 -.116E+04   -.813E-01 -.344E+00 -.744E+00   -.207E-01 -.995E-02 0.965E-02
   0.213E+02 -.151E+02 0.118E+04   -.210E+02 0.148E+02 -.117E+04   -.395E+00 0.352E+00 -.774E+00   0.401E-01 0.359E-02 -.191E-02
   -.529E+02 -.472E+02 -.220E+02   0.530E+02 0.477E+02 0.216E+02   -.132E+00 -.541E+00 0.289E+00   -.132E-01 -.475E-02 0.396E-03
   0.442E+02 0.832E+01 -.119E+04   -.439E+02 -.803E+01 0.119E+04   -.281E+00 -.294E+00 0.125E+01   0.514E-02 -.118E-02 -.965E-03
[...]
   -.715E+01 -.139E+02 -.865E+01   0.731E+01 0.133E+02 0.827E+01   -.831E-01 0.562E+00 0.432E+00   -.208E-01 0.530E-02 -.793E-02
   -.403E+02 0.292E+02 0.135E+04   0.403E+02 -.291E+02 -.135E+04   0.212E-01 -.213E-01 -.121E+00   0.437E-02 -.330E-01 0.161E-01
   -.234E+02 -.716E+01 0.134E+04   0.237E+02 0.774E+01 -.134E+04   -.252E+00 -.568E+00 -.962E+00   0.135E-01 -.261E-01 0.206E-02
   -.660E+01 -.915E+00 0.272E+04   0.546E+01 0.138E+01 -.272E+04   0.112E+01 -.448E+00 -.238E+01   -.188E-01 0.417E-02 0.260E-03
   0.347E+02 0.198E+02 0.270E+04   -.338E+02 -.202E+02 -.269E+04   -.824E+00 0.326E+00 -.276E+01   0.223E-01 0.202E-01 0.238E-01
   0.713E+02 0.293E+01 0.132E+04   -.716E+02 -.313E+01 -.132E+04   0.267E+00 0.227E+00 0.184E-01   -.745E-02 0.145E-01 -.889E-02
   0.634E+02 0.293E+02 0.130E+04   -.636E+02 -.292E+02 -.130E+04   0.222E+00 -.121E+00 -.132E+00   0.705E-02 0.296E-01 -.311E-02
   0.623E+02 0.308E+02 -.130E+04   -.626E+02 -.314E+02 0.130E+04   0.332E+00 0.624E+00 0.122E+01   -.577E-02 0.742E-03 0.959E-02
   0.500E+02 0.558E+02 0.274E+04   -.507E+02 -.552E+02 -.274E+04   0.618E+00 -.563E+00 -.179E+01   -.156E-01 -.153E-01 0.240E-02
   0.481E+02 0.284E+02 -.244E+01   -.486E+02 -.278E+02 0.243E+01   0.566E+00 -.598E+00 -.633E-02   0.308E-01 -.194E-01 -.273E-02
   0.224E+02 0.761E+02 -.155E+02   -.223E+02 -.752E+02 0.158E+02   -.797E-01 -.104E+01 -.394E+00   -.140E-01 0.145E-01 -.260E-01
   0.100E+03 0.450E+02 0.325E+02   -.999E+02 -.448E+02 -.327E+02   -.549E+00 -.227E+00 0.949E-01   0.148E-01 0.234E-02 -.292E-01
   -.776E+02 -.107E+03 0.116E+02   0.780E+02 0.107E+03 -.119E+02   -.422E+00 0.370E+00 0.188E+00   -.279E-01 -.110E-02 -.102E-01
   -.113E+01 0.225E+01 -.345E+03   0.122E+01 -.226E+01 0.346E+03   -.905E-01 0.856E-02 -.167E+01   0.122E-02 0.262E-03 -.226E-02
   0.105E+00 -.330E+00 -.230E+01   -.106E-12 -.366E-12 -.773E-11   -.267E-01 0.244E+00 0.287E+01   -.556E-01 0.571E-01 -.541E+00

 POSITION                                       TOTAL-FORCE (eV/Angst)
     12.97234      8.02087      6.94770        -0.011929      0.006480     -0.004284
      5.12462      8.06624      6.95440         0.000474     -0.011173     -0.022883
      5.02936      3.46258      7.03655         0.007187     -0.011006      0.009125
     14.30990      8.75385      9.30709         0.010584     -0.007733      0.031681
      3.74525      4.20094      9.40390         0.014180     -0.023033      0.002350
      6.41605      8.77820      9.29000        -0.004635     -0.043779     -0.004647
     11.69047      4.20974      9.27738        -0.022858     -0.001906      0.015012
      9.03376      8.77011      9.21576        -0.001648      0.013539     -0.012264
     10.38485      1.91362      9.30609        -0.026934      0.005927      0.013333
      2.44662      1.91578      9.29425         0.017294     -0.007073      0.017011
     11.65082      8.76849      9.33587         0.015299     -0.021510      0.003508
     12.99409      6.47971      9.36163        -0.020227     -0.000376     -0.022288
      5.05352      1.91773      9.39165        -0.016942      0.007078      0.008238
      7.71728      6.50318      9.37629        -0.018942      0.006743      0.014554
      9.04177      4.25116      9.39576         0.007180     -0.036663      0.029099
      5.07364      6.49534      9.37065         0.017530      0.018535     -0.011560
      7.68131      1.89584      9.39225         0.026147     -0.001915      0.012436
      7.81765      3.39541      7.00333         0.012353     -0.011084      0.024806
      6.32913      1.12110      6.93666         0.003602     -0.004349      0.004550
      6.42748      1.11951      0.84379        -0.005884      0.032683      0.001653
      3.74457      4.22498      2.80295         0.001669      0.014603     -0.034034
      1.13888      1.23353      6.90238        -0.000511     -0.005422     -0.019167
      1.05351      1.23301      0.75714         0.004215      0.005367     -0.001195
      6.37970      8.73232      2.89580         0.005120      0.020450      0.023650
      6.37643      4.22569      9.37130        -0.007180     -0.010471      0.018273
      7.71519      4.98986      4.84188         0.029845     -0.061335     -0.008965
     10.34184      6.50425      9.31997         0.029173     -0.015646      0.014220
     14.36690      7.24966      4.78751         0.021032     -0.008940     -0.022592
     11.63181      5.70407      7.00618        -0.002589     -0.001209      0.015501
      6.43297      5.77765      7.01979         0.010124      0.003158     -0.013460
      3.72880      2.59487      4.89932         0.003699     -0.036904     -0.022661
     10.40714      4.90964      4.85294        -0.023290     -0.000813     -0.028784
      3.73309      5.71772      7.06444         0.002976     -0.006047      0.003645
     13.01076      7.95414      0.82285        -0.019802      0.031964     -0.004019
      5.07062      7.97664      0.75916         0.000582      0.018891     -0.003376
      3.74725      5.77233      0.77268        -0.000583      0.001522     -0.007834
      7.73906      1.95923      2.91892         0.006809     -0.000770     -0.003018
      9.04575      8.78897      2.87226        -0.003235     -0.013500      0.004260
      2.43412      3.47198      7.04839         0.003836      0.004391     -0.003385
      2.40788      3.44595      0.73676        -0.014358      0.029420     -0.002182
     10.29842      1.96823      2.88139         0.018948     -0.012351     -0.009532
     13.01351      4.98805      4.94410         0.033994     -0.019424     -0.043746
      3.72635      1.09663      7.02901         0.000291      0.002336     -0.002472
      9.03859      5.76868      7.07020         0.008532     -0.013355      0.019957
      3.74683      1.15285      0.81959        -0.003400      0.003850      0.008190
      9.06513      5.72471      0.92537        -0.017786      0.022458     -0.016891
      5.21212      3.41637      0.86086        -0.002182      0.010615     -0.008867
     11.65625      8.70496      2.91787        -0.013718      0.000992     -0.000241
     11.62151      7.29974      4.90178         0.007184      0.005539     -0.023059
     12.89980      6.49745      2.82364         0.018126     -0.011437     -0.004337
      9.01343      4.18612      2.81919        -0.006167      0.006393     -0.003401
      7.80194      8.01095      6.95570         0.003966     -0.005460     -0.002624
      7.81053      7.92859      0.86888        -0.017697     -0.004600      0.024742
     10.31657      6.54831      2.89472         0.014917      0.001067     -0.000832
      2.46166      0.31661      4.92733        -0.016390     -0.031293     -0.040253
      7.75154      3.52543      0.86333         0.005945      0.006576      0.003126
      5.10291      1.89984      2.87069        -0.000898      0.023190     -0.004787
      5.17349      6.40557      2.77226        -0.031424      0.028084      0.004052
      7.65418      0.39388      4.89233         0.005594      0.007451      0.012031
      9.06199      1.16134      7.11327        -0.003405      0.021926      0.027243
[...]
      9.09183      2.62352      4.93970        -0.019984      0.002518      0.051021
      6.39598      2.67997      4.92292         0.054322     -0.005407      0.034016
     11.64052      4.17844      2.78900        -0.010244      0.014306      0.000459
      2.34972      1.92500      2.86197         0.005739      0.003717     -0.017487
     11.59075      5.72177      0.94802        -0.025667     -0.002870     -0.008252
      6.50379      5.69604      0.91052         0.003512      0.006344      0.011766
      7.71278      6.45493      2.81038        -0.003177      0.008404      0.056603
      6.43155      4.20716      2.83788         0.015983     -0.019349     -0.013026
     10.36446      3.38767      7.00216        -0.000151      0.013927      0.011715
     10.36553      3.54396      0.90454        -0.006424      0.010829     -0.013738
     10.23662      0.46679      4.91587        -0.015403      0.023726      0.051974
      9.06408      7.34028      4.95059         0.009352     -0.031059     -0.013063
      6.48344      7.27349      4.94428         0.023375      0.019422     -0.041746
      5.04827      0.31035      4.87551         0.027545      0.031306      0.008083
      9.04230      2.66464     10.35869        -0.003625     -0.009165     -0.032546
    total drift:                                0.022766     -0.028452      0.022699

  FREE ENERGIE OF THE ION-ELECTRON SYSTEM (eV)
  free  energy   TOTEN  =      -514.76154707 eV

  energy  without entropy=     -514.76737078  energy(sigma->0) =     -514.76348831

 d Force = 0.1447309E-02[-0.199E-03, 0.309E-02]  d Energy = 0.1414654E-02 0.327E-04
 d Force = 0.6093219E+02[ 0.609E+02, 0.610E+02]  d Ewald  = 0.6093217E+02 0.180E-04

 Conjugate gradient step on ions:
 trial-energy change:   -0.001415  1 .order   -0.001447   -0.003094    0.000199
  (g-gl).g = 0.272E-02      g.g   = 0.248E-02  gl.gl    = 0.652E-02
 g(Force)  = 0.248E-02   g(Stress)= 0.000E+00 ortho     =-0.172E-03
 gamma     =   0.41648
 trial     =   1.28243
 opt step  =   1.20488  (harmonic =   1.20488) maximal distance =0.00888382
 next E    =  -514.761586   (d E  =  -0.00145)

 reached required accuracy - stopping structural energy minimisation