 vasp.5.4.4.18Apr17-6-g9f103f2a35 (build Nov 30 2020 22:55:02) complex

 executed on             LinuxIFC date 2023.08.07  23:03:32

 INCAR:
 POTCAR:    PAW_PBE Pt 04Feb2005
 POTCAR:    PAW_PBE Pt 04Feb2005
   VRHFIN =Pt: s1d9

   TITEL  = PAW_PBE Pt 04Feb2005
   POMASS =  195.080; ZVAL   =   10.000    mass and valenz
   ENMAX  =  230.283; ENMIN  =  172.712 eV

 Optimization of the real space projectors (new method)

 maximal supplied QI-value         = 14.36
 optimisation between [QCUT,QGAM] = [ 11.92, 23.98] = [ 39.79,161.09] Ry
 Optimized for a Real-space Cutoff    1.49 Angstroem

   l    n(q)    QCUT    max X(q) W(low)/X(q) W(high)/X(q)  e(spline)
   2     10    11.920    66.195    0.79E-04    0.18E-03    0.24E-06
   2     10    11.920    64.643    0.81E-04    0.19E-03    0.24E-06
   0     11    11.920    95.520    0.28E-04    0.54E-04    0.18E-06
   0     11    11.920    63.403    0.27E-04    0.52E-04    0.17E-06
   1     10    11.920    19.961    0.18E-04    0.11E-03    0.23E-06
   1     10    11.920    13.289    0.25E-04    0.87E-04    0.19E-06
  PAW_PBE Pt 04Feb2005                  :

 POSCAR: Pt111\(1\1\1)\(2)
  positions in direct lattice
  velocities in cartesian coordinates
 exchange correlation table for  LEXCH =        8
   RHO(1)=    0.500       N(1)  =     2000
   RHO(2)=  100.500       N(2)  =     4000

 ion  position               nearest neighbor table
   1  1.000  0.000  0.056-   5 2.64   9 2.64  13 2.64  29 2.64  37 2.64  57 2.64  42 2.87  14 2.87
                            54 2.87
   2  0.333  0.167  0.178-  30 2.64  26 2.64  38 2.64  42 2.64  14 2.64   6 2.64  15 2.84   7 2.84
                            11 2.84   9 2.87  21 2.87  13 2.87
   3  0.167  0.333  0.297-  39 2.64  27 2.64  43 2.64   7 2.64  15 2.64  31 2.64  14 2.84   6 2.84
                            10 2.84  12 2.87   8 2.87  48 2.87
   4  0.000  1.000  0.419-   8 2.64  12 2.64  16 2.64  32 2.64  40 2.64  60 2.64  27 2.87   7 2.87
                            63 2.87
   5  1.000  0.250  0.056-   1 2.64  45 2.64  33 2.64   9 2.64  29 2.64  25 2.64  14 2.87  10 2.87
                            18 2.87
   6  0.333  0.417  0.178-  26 2.64  62 2.64  10 2.64  34 2.64  14 2.64   2 2.64  43 2.84   3 2.84
                            15 2.84  45 2.87  49 2.87   9 2.87
   7  0.167  0.083  0.297-  27 2.64  15 2.64   3 2.64  63 2.64  11 2.64  35 2.64  42 2.84   2 2.84
                            14 2.84  16 2.87   4 2.87  12 2.87
   8  0.000  0.250  0.419-   4 2.64  48 2.64  36 2.64  12 2.64  32 2.64  28 2.64  31 2.87   3 2.87
                            27 2.87
   9  0.250  0.250  0.056-  21 2.64  13 2.64  49 2.64   1 2.64  45 2.64   5 2.64   2 2.87  14 2.87
                             6 2.87
  10  0.083  0.417  0.178-  34 2.64   6 2.64  46 2.64  14 2.64  18 2.64  22 2.64  39 2.84  31 2.84
                             3 2.84  33 2.87  45 2.87   5 2.87
  11  0.417  0.083  0.297-  19 2.64  15 2.64   7 2.64  47 2.64  35 2.64  23 2.64  30 2.84  38 2.84
                             2 2.84  20 2.87  16 2.87  24 2.87
  12  0.250  0.250  0.419-  24 2.64  16 2.64  52 2.64   4 2.64  48 2.64   8 2.64   3 2.87  15 2.87
                             7 2.87
  13  0.250  0.000  0.056-  21 2.64   9 2.64  17 2.64   1 2.64  37 2.64  41 2.64  38 2.87   2 2.87
                            42 2.87
  14  0.083  0.167  0.178-  42 2.64  54 2.64   6 2.64   2 2.64  10 2.64  18 2.64  27 2.84   3 2.84
                             7 2.84   5 2.87   1 2.87   9 2.87
  15  0.417  0.333  0.297-  43 2.64   7 2.64   3 2.64  11 2.64  55 2.64  19 2.64  26 2.84   2 2.84
                             6 2.84  24 2.87  12 2.87  52 2.87
  16  0.250  1.000  0.419-  24 2.64  12 2.64  20 2.64   4 2.64  40 2.64  44 2.64   7 2.87  11 2.87
                            35 2.87
  17  0.500  0.000  0.056-  29 2.64  25 2.64  13 2.64  21 2.64  41 2.64  53 2.64  58 2.87  30 2.87
                            38 2.87
  18  0.833  0.167  0.178-  54 2.64  58 2.64  22 2.64  30 2.64  10 2.64  14 2.64  23 2.84  31 2.84
                            27 2.84  25 2.87  29 2.87   5 2.87
  19  0.667  0.333  0.297-  55 2.64  31 2.64  59 2.64  11 2.64  23 2.64  15 2.64  22 2.84  30 2.84
                            26 2.84  28 2.87  64 2.87  24 2.87
  20  0.500  1.000  0.419-  32 2.64  28 2.64  16 2.64  24 2.64  44 2.64  56 2.64  11 2.87  23 2.87
                            47 2.87
  21  0.500  0.250  0.056-  25 2.64  61 2.64   9 2.64  13 2.64  49 2.64  17 2.64  30 2.87   2 2.87
                            26 2.87
  22  0.833  0.417  0.178-  50 2.64  26 2.64  30 2.64  18 2.64  46 2.64  10 2.64  19 2.84  59 2.84
                            31 2.84  61 2.87  25 2.87  33 2.87
  23  0.667  0.083  0.297-  27 2.64  31 2.64  19 2.64  51 2.64  47 2.64  11 2.64  18 2.84  58 2.84
                            30 2.84  32 2.87  28 2.87  20 2.87
  24  0.500  0.250  0.419-  28 2.64  64 2.64  12 2.64  16 2.64  52 2.64  20 2.64  15 2.87  11 2.87
                            19 2.87
  25  0.750  0.250  0.056-  21 2.64  17 2.64  29 2.64  61 2.64  33 2.64   5 2.64  18 2.87  22 2.87
                            30 2.87
  26  0.583  0.417  0.178-   6 2.64   2 2.64  22 2.64  30 2.64  62 2.64  50 2.64  55 2.84  15 2.84
                            19 2.84  49 2.87  61 2.87  21 2.87
  27  0.917  0.083  0.297-  23 2.64   7 2.64   3 2.64  51 2.64  31 2.64  63 2.64  54 2.84  14 2.84
                            18 2.84   4 2.87   8 2.87  32 2.87
  28  0.750  0.250  0.419-  24 2.64  20 2.64  32 2.64  64 2.64  36 2.64   8 2.64  19 2.87  23 2.87
                            31 2.87
  29  0.750  0.000  0.056-  17 2.64  25 2.64   5 2.64  53 2.64   1 2.64  57 2.64  54 2.87  18 2.87
                            58 2.87
  30  0.583  0.167  0.178-   2 2.64  38 2.64  58 2.64  26 2.64  22 2.64  18 2.64  11 2.84  19 2.84
                            23 2.84  21 2.87  17 2.87  25 2.87
  31  0.917  0.333  0.297-  59 2.64  19 2.64  23 2.64  39 2.64   3 2.64  27 2.64  18 2.84  10 2.84
                            22 2.84   8 2.87  36 2.87  28 2.87
  32  0.750  1.000  0.419-  20 2.64  28 2.64   8 2.64  56 2.64   4 2.64  60 2.64  23 2.87  27 2.87
                            51 2.87
  33  1.000  0.500  0.056-  37 2.64  41 2.64   5 2.64  45 2.64  25 2.64  61 2.64  10 2.87  46 2.87
                            22 2.87
  34  0.333  0.667  0.178-  62 2.64  10 2.64  58 2.64  46 2.64   6 2.64  38 2.64  47 2.84  39 2.84
                            43 2.84  41 2.87  45 2.87  53 2.87
  35  0.167  0.833  0.297-  63 2.64  59 2.64   7 2.64  11 2.64  47 2.64  39 2.64  46 2.84  38 2.84
                            42 2.84  44 2.87  40 2.87  16 2.87
  36  0.000  0.500  0.419-  40 2.64  44 2.64   8 2.64  48 2.64  28 2.64  64 2.64  59 2.87  39 2.87
                            31 2.87
  37  1.000  0.750  0.056-  33 2.64  41 2.64  61 2.64  57 2.64  13 2.64   1 2.64  46 2.87  50 2.87
                            42 2.87
  38  0.333  0.917  0.178-  58 2.64  30 2.64   2 2.64  42 2.64  34 2.64  46 2.64  11 2.84  35 2.84
                            47 2.84  13 2.87  17 2.87  41 2.87
  39  0.167  0.583  0.297-   3 2.64  31 2.64  59 2.64  43 2.64  47 2.64  35 2.64  10 2.84  34 2.84
                            46 2.84  48 2.87  36 2.87  44 2.87
  40  0.000  0.750  0.419-  36 2.64  44 2.64  64 2.64  60 2.64  16 2.64   4 2.64  63 2.87  35 2.87
                            59 2.87
  41  0.250  0.750  0.056-  45 2.64  33 2.64  37 2.64  53 2.64  17 2.64  13 2.64  34 2.87  46 2.87
                            38 2.87
  42  0.083  0.917  0.178-  14 2.64   2 2.64  38 2.64  46 2.64  50 2.64  54 2.64   7 2.84  63 2.84
                            35 2.84   1 2.87  13 2.87  37 2.87
  43  0.417  0.583  0.297-  15 2.64   3 2.64  39 2.64  51 2.64  47 2.64  55 2.64  62 2.84   6 2.84
                            34 2.84  52 2.87  56 2.87  48 2.87
  44  0.250  0.750  0.419-  48 2.64  36 2.64  40 2.64  56 2.64  20 2.64  16 2.64  35 2.87  39 2.87
                            47 2.87
  45  0.250  0.500  0.056-  41 2.64  53 2.64   5 2.64   9 2.64  49 2.64  33 2.64   6 2.87  10 2.87
                            34 2.87
  46  0.083  0.667  0.178-  34 2.64  50 2.64  10 2.64  42 2.64  22 2.64  38 2.64  59 2.84  35 2.84
                            39 2.84  37 2.87  33 2.87  41 2.87
  47  0.417  0.833  0.297-  39 2.64  43 2.64  11 2.64  23 2.64  35 2.64  51 2.64  58 2.84  34 2.84
                            38 2.84  56 2.87  44 2.87  20 2.87
  48  0.250  0.500  0.419-  44 2.64  56 2.64   8 2.64  12 2.64  52 2.64  36 2.64  39 2.87   3 2.87
                            43 2.87
  49  0.500  0.500  0.056-  61 2.64  53 2.64  57 2.64  21 2.64   9 2.64  45 2.64  26 2.87   6 2.87
                            62 2.87
  50  0.833  0.667  0.178-  22 2.64  46 2.64  26 2.64  42 2.64  54 2.64  62 2.64  55 2.84  63 2.84
                            59 2.84  57 2.87  61 2.87  37 2.87
  51  0.667  0.833  0.297-  63 2.64  27 2.64  43 2.64  55 2.64  23 2.64  47 2.64  54 2.84  62 2.84
                            58 2.84  60 2.87  32 2.87  56 2.87
  52  0.500  0.500  0.419-  64 2.64  56 2.64  60 2.64  24 2.64  12 2.64  48 2.64  43 2.87  15 2.87
                            55 2.87
  53  0.500  0.750  0.056-  49 2.64  57 2.64  45 2.64  41 2.64  29 2.64  17 2.64  62 2.87  34 2.87
                            58 2.87
  54  0.833  0.917  0.178-  18 2.64  14 2.64  50 2.64  58 2.64  42 2.64  62 2.64  51 2.84  27 2.84
                            63 2.84  29 2.87   1 2.87  57 2.87
  55  0.667  0.583  0.297-  19 2.64  59 2.64  63 2.64  15 2.64  51 2.64  43 2.64  50 2.84  26 2.84
                            62 2.84  64 2.87  60 2.87  52 2.87
  56  0.500  0.750  0.419-  52 2.64  60 2.64  48 2.64  44 2.64  32 2.64  20 2.64  47 2.87  43 2.87
                            51 2.87
  57  0.750  0.750  0.056-  61 2.64  49 2.64  53 2.64  37 2.64   1 2.64  29 2.64  50 2.87  62 2.87
                            54 2.87
  58  0.583  0.917  0.178-  38 2.64  30 2.64  18 2.64  34 2.64  62 2.64  54 2.64  47 2.84  23 2.84
                            51 2.84  17 2.87  29 2.87  53 2.87
  59  0.917  0.583  0.297-  31 2.64  55 2.64  19 2.64  39 2.64  35 2.64  63 2.64  22 2.84  46 2.84
                            50 2.84  36 2.87  40 2.87  64 2.87
  60  0.750  0.750  0.419-  64 2.64  52 2.64  56 2.64  40 2.64   4 2.64  32 2.64  51 2.87  55 2.87
                            63 2.87
  61  0.750  0.500  0.056-  49 2.64  57 2.64  21 2.64  25 2.64  37 2.64  33 2.64  22 2.87  26 2.87
                            50 2.87
  62  0.583  0.667  0.178-  34 2.64   6 2.64  26 2.64  58 2.64  54 2.64  50 2.64  43 2.84  51 2.84
                            55 2.84  53 2.87  49 2.87  57 2.87
  63  0.917  0.833  0.297-  51 2.64  35 2.64  55 2.64   7 2.64  59 2.64  27 2.64  50 2.84  42 2.84
                            54 2.84  40 2.87   4 2.87  60 2.87
  64  0.750  0.500  0.419-  52 2.64  60 2.64  24 2.64  28 2.64  40 2.64  36 2.64  55 2.87  19 2.87
                            59 2.87

  LATTYP: Found a hexagonal cell.
 ALAT       =    10.5600004196
 C/A-ratio  =     1.8939393187

  Lattice vectors:

 A1 = (  10.5600004196,   0.0000000000,   0.0000000000)
 A2 = (  -5.2800002098,   9.1452286274,   0.0000000000)
 A3 = (   0.0000000000,   0.0000000000,  20.0000000000)

[...]
 total charge-density along one line

 soft charge-density along one line, spin component           2
         0         1         2         3         4         5         6         7         8         9
 total charge-density along one line

------------------------ aborting loop because EDIFF is reached ----------------------------------------

         DFTD3 V3.0 Rev 1
 IVDW         = 11
 DF pbe
 parameters
 VDW_S6       =    1.0000
 VDW_S8       =    0.7220
 VDW_SR       =    1.2170
 rs18     =    1.0000
 alpha6   =   14.0000
 alpha8   =   16.0000
 k1-k3    =   16.0000    1.3333   -4.0000
 VDW_RADIUS   =   50.2022 A
 VDW_CNRADIUS =   21.1671 A
 Edisp (eV)  -38.69807

 E6    (eV) :   -14.2567
 E8    (eV) :   -24.4414
 % E8        : 63.16

  FORCE on cell =-STRESS in cart. coord.  units (eV):
  Direction    XX          YY          ZZ          XY          YZ          ZX
  Alpha Z  2015.86452  2015.86452  2015.86452
  Ewald  163260.30494163260.32347************     0.01605     0.00916    -0.01588
  Hartree174140.07765174140.08277************     0.00443     0.00177    -0.00306
  E(xc)   -2856.29486 -2856.29468 -2881.78652     0.00016     0.00012    -0.00020
  Local  ************************359550.25943    -0.01595    -0.00711     0.01232
  n-local   572.73720   586.63578   315.53621    -4.00979     2.92589     1.62967
  augment  3253.08011  3253.07726  3532.95159    -0.00247    -0.00149     0.00256
  Kinetic  9195.46403  9106.85962  9741.43203    25.57147     7.68860     4.44642
  Fock        0.00000     0.00000     0.00000     0.00000     0.00000     0.00000
  vdW       -53.55119   -53.55147   -28.88451    -0.00024     0.00006    -0.00010
  Total      82.95267    82.95146     0.18766    -0.00105    -0.00052     0.00090
  in kB      68.81014    68.80914     0.15566    -0.00087    -0.00043     0.00074

 VOLUME and BASIS-vectors are now :
  energy-cutoff  :      550.00
  volume of cell :     1931.47
      direct lattice vectors                 reciprocal lattice vectors
    10.560000420  0.000000000  0.000000000     0.094696966  0.054673319  0.000000000
    -5.280000210  9.145228627  0.000000000     0.000000000  0.109346638  0.000000000
     0.000000000  0.000000000 20.000000000     0.000000000  0.000000000  0.050000000

  length of vectors
    10.560000420 10.560000420 20.000000000     0.109346638  0.109346638  0.050000000

 FORCES acting on ions
    electron-ion (+dipol)            ewald-force                    non-local-force                 convergence-correction
   0.935E-05 0.598E-04 0.231E+04   -.796E-04 -.164E-03 -.231E+04   -.353E-04 0.204E-04 -.106E+00   -.118E-06 0.690E-07 -.289E-01
   -.454E-03 0.328E-03 0.780E+03   0.256E-03 -.326E-03 -.780E+03   0.932E-05 -.538E-05 -.405E+00   0.111E-06 -.871E-07 -.279E-01
   0.527E-03 -.245E-03 -.780E+03   -.461E-03 0.170E-03 0.780E+03   -.932E-05 0.538E-05 0.405E+00   -.136E-06 0.362E-07 0.279E-01
   0.364E-04 0.370E-04 -.231E+04   -.376E-04 -.166E-03 0.231E+04   0.353E-04 -.204E-04 0.106E+00   0.106E-06 -.752E-07 0.289E-01
   0.144E-04 0.419E-04 0.231E+04   -.994E-04 -.681E-04 -.231E+04   -.353E-04 0.204E-04 -.106E+00   -.112E-06 0.687E-07 -.289E-01
   -.444E-03 0.317E-03 0.780E+03   0.291E-03 -.327E-03 -.780E+03   0.932E-05 -.538E-05 -.405E+00   0.104E-06 -.696E-07 -.279E-01
   0.513E-03 -.240E-03 -.780E+03   -.422E-03 0.124E-03 0.780E+03   -.932E-05 0.538E-05 0.405E+00   -.138E-06 0.452E-07 0.279E-01
   0.434E-04 0.235E-04 -.231E+04   -.636E-04 -.835E-04 0.231E+04   0.353E-04 -.204E-04 0.106E+00   0.118E-06 -.661E-07 0.289E-01
   0.156E-04 0.430E-04 0.231E+04   -.103E-03 -.718E-04 -.231E+04   -.353E-04 0.204E-04 -.106E+00   -.103E-06 0.818E-07 -.289E-01
   -.447E-03 0.323E-03 0.780E+03   0.301E-03 -.346E-03 -.780E+03   0.932E-05 -.538E-05 -.405E+00   0.115E-06 -.511E-07 -.279E-01
   0.492E-03 -.228E-03 -.780E+03   -.417E-03 0.845E-04 0.780E+03   -.932E-05 0.538E-05 0.405E+00   -.105E-06 0.635E-07 0.279E-01
   0.371E-04 0.237E-04 -.231E+04   -.431E-04 -.842E-04 0.231E+04   0.353E-04 -.204E-04 0.106E+00   0.107E-06 -.577E-07 0.289E-01
   0.499E-05 0.686E-04 0.231E+04   -.652E-04 -.193E-03 -.231E+04   -.353E-04 0.204E-04 -.106E+00   -.103E-06 0.767E-07 -.289E-01
   -.457E-03 0.319E-03 0.780E+03   0.296E-03 -.297E-03 -.780E+03   0.932E-05 -.538E-05 -.405E+00   0.121E-06 -.795E-07 -.279E-01
   0.511E-03 -.243E-03 -.780E+03   -.410E-03 0.163E-03 0.780E+03   -.932E-05 0.538E-05 0.405E+00   -.108E-06 0.490E-07 0.279E-01
   0.243E-04 0.417E-04 -.231E+04   0.157E-05 -.181E-03 0.231E+04   0.353E-04 -.204E-04 0.106E+00   0.107E-06 -.759E-07 0.289E-01
   -.124E-04 0.559E-04 0.231E+04   -.908E-05 -.152E-03 -.231E+04   -.353E-04 0.204E-04 -.106E+00   -.128E-06 0.618E-07 -.289E-01
   -.456E-03 0.292E-03 0.780E+03   0.522E-03 -.209E-03 -.780E+03   0.932E-05 -.538E-05 -.405E+00   0.934E-07 -.885E-07 -.279E-01
   0.482E-03 -.234E-03 -.780E+03   -.450E-03 0.134E-03 0.780E+03   -.932E-05 0.538E-05 0.405E+00   -.749E-07 0.666E-07 0.279E-01
   0.349E-04 0.410E-04 -.231E+04   -.328E-04 -.179E-03 0.231E+04   0.353E-04 -.204E-04 0.106E+00   0.142E-06 -.664E-07 0.289E-01
   0.504E-05 0.403E-04 0.231E+04   0.579E-05 -.632E-04 -.231E+04   -.353E-04 0.204E-04 -.106E+00   -.129E-06 0.659E-07 -.289E-01
   -.455E-03 0.301E-03 0.780E+03   0.586E-03 -.275E-03 -.780E+03   0.932E-05 -.538E-05 -.405E+00   0.996E-07 -.676E-07 -.279E-01
   0.470E-03 -.231E-03 -.780E+03   -.478E-03 0.946E-04 0.780E+03   -.932E-05 0.538E-05 0.405E+00   -.762E-07 0.804E-07 0.279E-01
   0.475E-04 0.354E-04 -.231E+04   -.230E-05 -.122E-03 0.231E+04   0.353E-04 -.204E-04 0.106E+00   0.131E-06 -.448E-07 0.289E-01
   -.554E-05 0.578E-05 0.231E+04   0.177E-03 0.496E-04 -.231E+04   -.353E-04 0.204E-04 -.106E+00   -.146E-06 0.510E-07 -.289E-01
   -.445E-03 0.264E-03 0.780E+03   0.554E-03 -.154E-03 -.780E+03   0.932E-05 -.538E-05 -.405E+00   0.100E-06 -.851E-07 -.279E-01
   0.493E-03 -.249E-03 -.780E+03   -.420E-03 0.152E-03 0.780E+03   -.932E-05 0.538E-05 0.405E+00   -.984E-07 0.672E-07 0.279E-01
   0.473E-04 0.559E-06 -.231E+04   0.136E-03 -.837E-05 0.231E+04   0.353E-04 -.204E-04 0.106E+00   0.139E-06 -.564E-07 0.289E-01
   -.125E-04 0.255E-04 0.231E+04   0.135E-03 -.527E-04 -.231E+04   -.353E-04 0.204E-04 -.106E+00   -.142E-06 0.519E-07 -.289E-01
   -.459E-03 0.293E-03 0.780E+03   0.659E-03 -.214E-03 -.780E+03   0.932E-05 -.538E-05 -.405E+00   0.928E-07 -.940E-07 -.279E-01
   0.497E-03 -.246E-03 -.780E+03   -.364E-03 0.172E-03 0.780E+03   -.932E-05 0.538E-05 0.405E+00   -.966E-07 0.560E-07 0.279E-01
   0.383E-04 0.139E-04 -.231E+04   0.999E-04 -.900E-04 0.231E+04   0.353E-04 -.204E-04 0.106E+00   0.139E-06 -.676E-07 0.289E-01
   0.136E-04 0.569E-04 0.231E+04   -.904E-04 -.848E-04 -.231E+04   -.353E-04 0.204E-04 -.106E+00   -.114E-06 0.922E-07 -.289E-01
   -.437E-03 0.280E-03 0.780E+03   0.329E-03 -.171E-03 -.780E+03   0.932E-05 -.538E-05 -.405E+00   0.958E-07 -.362E-07 -.279E-01
   0.491E-03 -.261E-03 -.780E+03   -.351E-03 0.292E-03 0.780E+03   -.932E-05 0.538E-05 0.405E+00   -.137E-06 0.435E-07 0.279E-01
   0.424E-04 0.227E-04 -.231E+04   -.546E-04 -.492E-04 0.231E+04   0.353E-04 -.204E-04 0.106E+00   0.120E-06 -.728E-07 0.289E-01
   -.144E-04 0.342E-04 0.231E+04   -.709E-04 0.168E-03 -.231E+04   -.353E-04 0.204E-04 -.106E+00   -.118E-06 0.759E-07 -.289E-01
   -.457E-03 0.335E-03 0.780E+03   0.328E-03 -.449E-03 -.780E+03   0.932E-05 -.538E-05 -.405E+00   0.105E-06 -.476E-07 -.279E-01
   0.475E-03 -.276E-03 -.780E+03   -.430E-03 0.435E-03 0.780E+03   -.932E-05 0.538E-05 0.405E+00   -.136E-06 0.413E-07 0.279E-01
   0.128E-04 0.643E-05 -.231E+04   -.294E-04 0.183E-03 0.231E+04   0.353E-04 -.204E-04 0.106E+00   0.107E-06 -.917E-07 0.289E-01
   -.151E-04 0.315E-04 0.231E+04   -.683E-04 0.177E-03 -.231E+04   -.353E-04 0.204E-04 -.106E+00   -.102E-06 0.807E-07 -.289E-01
   -.460E-03 0.311E-03 0.780E+03   0.339E-03 -.372E-03 -.780E+03   0.932E-05 -.538E-05 -.405E+00   0.125E-06 -.446E-07 -.279E-01
   0.465E-03 -.282E-03 -.780E+03   -.460E-03 0.454E-03 0.780E+03   -.932E-05 0.538E-05 0.405E+00   -.116E-06 0.539E-07 0.279E-01
   0.841E-05 -.401E-05 -.231E+04   -.151E-04 0.217E-03 0.231E+04   0.353E-04 -.204E-04 0.106E+00   0.116E-06 -.994E-07 0.289E-01
   0.861E-05 0.494E-04 0.231E+04   -.739E-04 -.604E-04 -.231E+04   -.353E-04 0.204E-04 -.106E+00   -.101E-06 0.967E-07 -.289E-01
   -.462E-03 0.285E-03 0.780E+03   0.411E-03 -.188E-03 -.780E+03   0.932E-05 -.538E-05 -.405E+00   0.119E-06 -.288E-07 -.279E-01
   0.480E-03 -.259E-03 -.780E+03   -.441E-03 0.284E-03 0.780E+03   -.932E-05 0.538E-05 0.405E+00   -.108E-06 0.638E-07 0.279E-01
   0.319E-04 0.134E-04 -.231E+04   -.198E-04 -.187E-04 0.231E+04   0.353E-04 -.204E-04 0.106E+00   0.117E-06 -.753E-07 0.289E-01
   0.672E-05 0.325E-04 0.231E+04   -.684E-04 -.582E-05 -.231E+04   -.353E-04 0.204E-04 -.106E+00   -.131E-06 0.775E-07 -.289E-01
   -.458E-03 0.245E-03 0.780E+03   0.396E-03 -.591E-04 -.780E+03   0.932E-05 -.538E-05 -.405E+00   0.114E-06 -.432E-07 -.279E-01
   0.455E-03 -.257E-03 -.780E+03   -.496E-03 0.279E-03 0.780E+03   -.932E-05 0.538E-05 0.405E+00   -.788E-07 0.908E-07 0.279E-01
   0.485E-04 0.130E-04 -.231E+04   -.742E-04 -.175E-04 0.231E+04   0.353E-04 -.204E-04 0.106E+00   0.130E-06 -.585E-07 0.289E-01
   -.250E-04 0.177E-04 0.231E+04   -.367E-04 0.221E-03 -.231E+04   -.353E-04 0.204E-04 -.106E+00   -.133E-06 0.679E-07 -.289E-01
   -.457E-03 0.296E-03 0.780E+03   0.462E-03 -.323E-03 -.780E+03   0.932E-05 -.538E-05 -.405E+00   0.105E-06 -.453E-07 -.279E-01
   0.442E-03 -.277E-03 -.780E+03   -.518E-03 0.437E-03 0.780E+03   -.932E-05 0.538E-05 0.405E+00   -.735E-07 0.734E-07 0.279E-01
   0.208E-04 -.338E-05 -.231E+04   -.553E-04 0.215E-03 0.231E+04   0.353E-04 -.204E-04 0.106E+00   0.138E-06 -.836E-07 0.289E-01
   -.276E-04 -.113E-04 0.231E+04   0.109E-03 0.316E-03 -.231E+04   -.353E-04 0.204E-04 -.106E+00   -.143E-06 0.609E-07 -.289E-01
   -.461E-03 0.284E-03 0.780E+03   0.602E-03 -.284E-03 -.780E+03   0.932E-05 -.538E-05 -.405E+00   0.829E-07 -.465E-07 -.279E-01
   0.448E-03 -.272E-03 -.780E+03   -.405E-03 0.423E-03 0.780E+03   -.932E-05 0.538E-05 0.405E+00   -.962E-07 0.652E-07 0.279E-01
   0.191E-04 -.296E-04 -.231E+04   0.876E-04 0.300E-03 0.231E+04   0.353E-04 -.204E-04 0.106E+00   0.130E-06 -.786E-07 0.289E-01
   0.233E-05 0.163E-04 0.231E+04   0.227E-03 0.473E-04 -.231E+04   -.353E-04 0.204E-04 -.106E+00   -.144E-06 0.713E-07 -.289E-01
   -.450E-03 0.233E-03 0.780E+03   0.631E-03 -.182E-04 -.780E+03   0.932E-05 -.538E-05 -.405E+00   0.923E-07 -.484E-07 -.279E-01
   0.479E-03 -.267E-03 -.780E+03   -.438E-03 0.311E-03 0.780E+03   -.932E-05 0.538E-05 0.405E+00   -.939E-07 0.723E-07 0.279E-01
   0.465E-04 -.167E-06 -.231E+04   0.213E-03 0.257E-04 0.231E+04   0.353E-04 -.204E-04 0.106E+00   0.131E-06 -.579E-07 0.289E-01
   0.969E-03 0.144E-02 0.550E-02   0.122E-13 0.355E-12 -.318E-11   0.355E-17 -.775E-17 0.161E-14   0.161E-07 0.267E-07 -.141E-04

 POSITION                                       TOTAL-FORCE (eV/Angst)
     10.55998      0.00001      1.11585        -0.000060      0.000035     -0.004689
      2.63997      1.52422      3.55048        -0.000023      0.000013     -0.027382
      0.00003      3.04839      5.94592         0.000023     -0.000013      0.027382
     -5.27998      9.14521      8.38055         0.000060     -0.000035      0.004689
      9.23998      2.28632      1.11585        -0.000060      0.000035     -0.004689
      1.31997      3.81053      3.55048        -0.000023      0.000013     -0.027382
      1.32003      0.76209      5.94592         0.000023     -0.000013      0.027382
     -1.31998      2.28629      8.38055         0.000060     -0.000035      0.004689
      1.31998      2.28632      1.11585        -0.000060      0.000035     -0.004689
     -1.32003      3.81053      3.55048        -0.000023      0.000013     -0.027382
      3.96003      0.76209      5.94592         0.000023     -0.000013      0.027382
      1.32002      2.28629      8.38055         0.000060     -0.000035      0.004689
      2.63998      0.00001      1.11585        -0.000060      0.000035     -0.004689
     -0.00003      1.52422      3.55048        -0.000023      0.000013     -0.027382
      2.64003      3.04839      5.94592         0.000023     -0.000013      0.027382
     -2.63998      9.14521      8.38055         0.000060     -0.000035      0.004689
      5.27998      0.00001      1.11585        -0.000060      0.000035     -0.004689
      7.91997      1.52422      3.55048        -0.000023      0.000013     -0.027382
      5.28003      3.04839      5.94592         0.000023     -0.000013      0.027382
      0.00002      9.14521      8.38055         0.000060     -0.000035      0.004689
      3.95998      2.28632      1.11585        -0.000060      0.000035     -0.004689
      6.59997      3.81053      3.55048        -0.000023      0.000013     -0.027382
      6.60003      0.76209      5.94592         0.000023     -0.000013      0.027382
      3.96002      2.28629      8.38055         0.000060     -0.000035      0.004689
      6.59998      2.28632      1.11585        -0.000060      0.000035     -0.004689
      3.95997      3.81053      3.55048        -0.000023      0.000013     -0.027382
      9.24003      0.76209      5.94592         0.000023     -0.000013      0.027382
      6.60002      2.28629      8.38055         0.000060     -0.000035      0.004689
      7.91998      0.00001      1.11585        -0.000060      0.000035     -0.004689
      5.27997      1.52422      3.55048        -0.000023      0.000013     -0.027382
      7.92003      3.04839      5.94592         0.000023     -0.000013      0.027382
      2.64002      9.14521      8.38055         0.000060     -0.000035      0.004689
      7.91998      4.57263      1.11585        -0.000060      0.000035     -0.004689
     -0.00003      6.09683      3.55048        -0.000023      0.000013     -0.027382
     -2.63997      7.62101      5.94592         0.000023     -0.000013      0.027382
     -2.63998      4.57260      8.38055         0.000060     -0.000035      0.004689
      6.59998      6.85894      1.11585        -0.000060      0.000035     -0.004689
     -1.32003      8.38314      3.55048        -0.000023      0.000013     -0.027382
     -1.31997      5.33470      5.94592         0.000023     -0.000013      0.027382
     -3.95998      6.85891      8.38055         0.000060     -0.000035      0.004689
     -1.32002      6.85894      1.11585        -0.000060      0.000035     -0.004689
     -3.96003      8.38314      3.55048        -0.000023      0.000013     -0.027382
      1.32003      5.33470      5.94592         0.000023     -0.000013      0.027382
     -1.31998      6.85891      8.38055         0.000060     -0.000035      0.004689
     -0.00002      4.57263      1.11585        -0.000060      0.000035     -0.004689
     -2.64003      6.09683      3.55048        -0.000023      0.000013     -0.027382
      0.00003      7.62101      5.94592         0.000023     -0.000013      0.027382
      0.00002      4.57260      8.38055         0.000060     -0.000035      0.004689
      2.63998      4.57263      1.11585        -0.000060      0.000035     -0.004689
      5.27997      6.09683      3.55048        -0.000023      0.000013     -0.027382
      2.64003      7.62101      5.94592         0.000023     -0.000013      0.027382
      2.64002      4.57260      8.38055         0.000060     -0.000035      0.004689
      1.31998      6.85894      1.11585        -0.000060      0.000035     -0.004689
      3.95997      8.38314      3.55048        -0.000023      0.000013     -0.027382
      3.96003      5.33470      5.94592         0.000023     -0.000013      0.027382
      1.32002      6.85891      8.38055         0.000060     -0.000035      0.004689
      3.95998      6.85894      1.11585        -0.000060      0.000035     -0.004689
      1.31997      8.38314      3.55048        -0.000023      0.000013     -0.027382
      6.60003      5.33470      5.94592         0.000023     -0.000013      0.027382
      3.96002      6.85891      8.38055         0.000060     -0.000035      0.004689
      5.27998      4.57263      1.11585        -0.000060      0.000035     -0.004689
      2.63997      6.09683      3.55048        -0.000023      0.000013     -0.027382
      5.28003      7.62101      5.94592         0.000023     -0.000013      0.027382
      5.28002      4.57260      8.38055         0.000060     -0.000035      0.004689
    total drift:                                0.000969      0.001440      0.005491

  FREE ENERGIE OF THE ION-ELECTRON SYSTEM (eV)
  free  energy   TOTEN  =      -405.08622820 eV

  energy  without entropy=     -405.07036238  energy(sigma->0) =     -405.08093959

 reached required accuracy - stopping structural energy minimisation