 vasp.5.4.4.18Apr17-6-g9f103f2a35 (build Nov 30 2020 22:55:02) complex

 executed on             LinuxIFC date 2023.06.13  19:35:31

 INCAR:
 POTCAR:    PAW_PBE Pt 04Feb2005
 POTCAR:    PAW_PBE Fe 06Sep2000
 POTCAR:    PAW_PBE Co 02Aug2007
 POTCAR:    PAW_PBE Cu 22Jun2005
 POTCAR:    PAW_PBE Ni 02Aug2007
 POTCAR:    PAW_PBE Pt 04Feb2005
   VRHFIN =Pt: s1d9

   TITEL  = PAW_PBE Pt 04Feb2005
   POMASS =  195.080; ZVAL   =   10.000    mass and valenz
   ENMAX  =  230.283; ENMIN  =  172.712 eV

 POTCAR:    PAW_PBE Fe 06Sep2000
   VRHFIN =Fe:  d7 s1

   TITEL  = PAW_PBE Fe 06Sep2000
   POMASS =   55.847; ZVAL   =    8.000    mass and valenz
   ENMAX  =  267.882; ENMIN  =  200.911 eV

 POTCAR:    PAW_PBE Co 02Aug2007
   VRHFIN =Co: d8 s1

   TITEL  = PAW_PBE Co 02Aug2007
   POMASS =   58.933; ZVAL   =    9.000    mass and valenz
   ENMAX  =  267.968; ENMIN  =  200.976 eV

 POTCAR:    PAW_PBE Cu 22Jun2005
   VRHFIN =Cu: d10 p1

   TITEL  = PAW_PBE Cu 22Jun2005
   POMASS =   63.546; ZVAL   =   11.000    mass and valenz
   ENMAX  =  295.446; ENMIN  =  221.585 eV

 POTCAR:    PAW_PBE Ni 02Aug2007
   VRHFIN =Ni:

   TITEL  = PAW_PBE Ni 02Aug2007
   POMASS =   58.690; ZVAL   =   10.000    mass and valenz
   ENMAX  =  269.532; ENMIN  =  202.149 eV

 Optimization of the real space projectors (new method)

 maximal supplied QI-value         = 14.36
 optimisation between [QCUT,QGAM] = [ 11.92, 23.98] = [ 39.79,161.09] Ry
 Optimized for a Real-space Cutoff    1.49 Angstroem

   l    n(q)    QCUT    max X(q) W(low)/X(q) W(high)/X(q)  e(spline)
   2     10    11.920    66.195    0.79E-04    0.18E-03    0.24E-06
   2     10    11.920    64.643    0.81E-04    0.19E-03    0.24E-06
   0     11    11.920    95.520    0.28E-04    0.54E-04    0.18E-06
   0     11    11.920    63.403    0.27E-04    0.52E-04    0.17E-06
   1     10    11.920    19.961    0.18E-04    0.11E-03    0.23E-06
   1     10    11.920    13.289    0.25E-04    0.87E-04    0.19E-06
 Optimization of the real space projectors (new method)

[...]

   l    n(q)    QCUT    max X(q) W(low)/X(q) W(high)/X(q)  e(spline)
   2     10    11.864     4.610    0.10E-03    0.20E-03    0.29E-06
   2     10    11.864     8.522    0.17E-03    0.33E-03    0.50E-06
   0     11    11.864    51.609    0.52E-04    0.55E-04    0.33E-06
   0     11    11.864    27.747    0.46E-04    0.52E-04    0.31E-06
   1     10    11.864    20.408    0.54E-04    0.25E-04    0.21E-06
   1     10    11.864    13.425    0.48E-04    0.22E-04    0.18E-06
 Optimization of the real space projectors (new method)

 maximal supplied QI-value         = 16.25
 optimisation between [QCUT,QGAM] = [ 11.86, 23.89] = [ 39.41,159.82] Ry
 Optimized for a Real-space Cutoff    1.33 Angstroem

   l    n(q)    QCUT    max X(q) W(low)/X(q) W(high)/X(q)  e(spline)
   2      9    11.864    60.317    0.21E-03    0.51E-03    0.25E-06
   2      9    11.864    55.921    0.21E-03    0.51E-03    0.26E-06
   0      9    11.864    51.690    0.22E-03    0.30E-04    0.17E-06
   0      9    11.864    30.015    0.20E-03    0.28E-04    0.15E-06
   1      9    11.864    18.849    0.76E-04    0.33E-03    0.17E-06
   1      9    11.864    14.624    0.60E-04    0.28E-03    0.15E-06
  PAW_PBE Pt 04Feb2005                  :
  PAW_PBE Fe 06Sep2000                  :
  PAW_PBE Co 02Aug2007                  :
  PAW_PBE Cu 22Jun2005                  :
  PAW_PBE Ni 02Aug2007                  :

 POSCAR: 10.56
  positions in direct lattice
  velocities in cartesian coordinates
 exchange correlation table for  LEXCH =        8
   RHO(1)=    0.500       N(1)  =     2000
   RHO(2)=  100.500       N(2)  =     4000

 ion  position               nearest neighbor table
   1  0.788  0.879  0.317-  49 2.62  28 2.63  19 2.63  59 2.65  33 2.66  61 2.66  29 2.67  60 2.68
                             2 2.72  11 2.77   4 2.81  12 2.85
   2  0.043  0.882  0.316-  79 2.55  77 2.60  60 2.63  30 2.64  28 2.66  52 2.66  33 2.68  22 2.69
                             1 2.72   6 2.76   4 2.83  16 2.89
   3  0.280  0.380  0.320-  39 2.56  64 2.58  33 2.59  31 2.63  19 2.70  43 2.70  68 2.71  30 2.72
                             5 2.78  13 2.79  18 2.81  25 2.84
   4  0.875  0.961  0.424-  17 2.63   9 2.64  16 2.64   6 2.65  11 2.65  12 2.65  60 2.80   1 2.81
                             2 2.83
   5  0.123  0.462  0.428-  12 2.62   7 2.63  10 2.64  16 2.64  25 2.66  13 2.66  39 2.72  33 2.74
                             3 2.78
   6  0.125  0.961  0.422-   8 2.63  10 2.64  14 2.64   9 2.64   4 2.65  16 2.65   2 2.76  52 2.77
                            22 2.86
   7  0.875  0.460  0.427-  15 2.62   5 2.63   9 2.63  10 2.64  12 2.65  27 2.65  39 2.68  75 2.76
                            29 2.80
   8  0.375  0.960  0.421-  43 2.60  14 2.62  27 2.62   6 2.63  13 2.63  10 2.64  11 2.64  52 2.69
                            61 2.73
   9  0.875  0.211  0.421-   7 2.63  15 2.63  17 2.63   4 2.64   6 2.64  10 2.65  75 2.69  60 2.72
                            22 2.81
  10  0.126  0.210  0.423-  13 2.62   6 2.64   5 2.64   8 2.64   7 2.64   9 2.65  39 2.67  43 2.71
                            22 2.79
  11  0.625  0.960  0.423-  13 2.63  12 2.64  17 2.64   8 2.64  27 2.64   4 2.65   1 2.77  19 2.82
                            61 2.83
  12  0.875  0.710  0.426-   5 2.62  11 2.64  16 2.64   7 2.65   4 2.65  27 2.65  33 2.69  29 2.82
                             1 2.85
  13  0.375  0.209  0.425-  10 2.62  11 2.63   8 2.63  17 2.66  25 2.66   5 2.66  43 2.76   3 2.79
                            19 2.83
  14  0.376  0.711  0.424-  27 2.61   8 2.62   6 2.64  15 2.64  25 2.65  16 2.66  44 2.69  30 2.77
                            52 2.77
  15  0.626  0.461  0.423-   7 2.62  27 2.63   9 2.63  14 2.64  17 2.65  25 2.65  44 2.69  75 2.71
                            18 2.76
  16  0.125  0.711  0.426-  25 2.64   5 2.64   4 2.64  12 2.64   6 2.65  14 2.66  33 2.67  30 2.83
                             2 2.89
  17  0.625  0.210  0.422-   4 2.63   9 2.63  11 2.64  15 2.65  25 2.65  13 2.66  18 2.76  60 2.76
                            19 2.86
  18  0.548  0.376  0.317-  67 2.57  60 2.59  75 2.61  44 2.64  68 2.66  26 2.67  30 2.70  19 2.73
                            15 2.76  17 2.76   3 2.81  25 2.88
  19  0.535  0.124  0.315-  80 2.55  43 2.57  68 2.57  59 2.60   1 2.63  61 2.63   3 2.70  18 2.73
                            60 2.75  11 2.82  13 2.83  17 2.86
  20  0.545  0.124  0.040-  37 2.55  57 2.55  48 2.58  62 2.63  47 2.67  63 2.67  45 2.68  56 2.70
                            34 2.71
  21  0.121  0.461  0.128-  40 2.52  36 2.53  47 2.53  42 2.59  69 2.61  64 2.62  70 2.64  50 2.64
                            58 2.67  57 2.71  74 2.71  31 2.71
  22  0.043  0.137  0.314-  65 2.52  55 2.54  77 2.58  39 2.58  43 2.58  75 2.60  60 2.68   2 2.69
                            52 2.73  10 2.79   9 2.81   6 2.86  31 3.39
  23  0.040  0.131  0.033-  70 2.58  40 2.61  41 2.61  45 2.62  76 2.63  62 2.64  24 2.69  35 2.72
                            53 2.78
  24  0.130  0.959  0.132-  79 2.51  77 2.54  35 2.57  53 2.57  55 2.58  70 2.62  38 2.64  58 2.64
                            73 2.65  23 2.69  66 2.71  41 2.72
  25  0.375  0.461  0.427-  16 2.64  17 2.65  14 2.65  15 2.65   5 2.66  13 2.66   3 2.84  30 2.85
                            18 2.88
  26  0.455  0.545  0.219-  73 2.50  74 2.54  51 2.55  79 2.61  64 2.63  30 2.65  68 2.67  18 2.67
                            78 2.67  32 2.68  67 2.72  44 2.76
  27  0.623  0.711  0.424-  14 2.61   8 2.62  15 2.63  11 2.64  12 2.65   7 2.65  44 2.68  61 2.77
                            29 2.79
  28  0.957  0.789  0.221-  58 2.56  66 2.58  50 2.58  42 2.60  49 2.62   1 2.63  64 2.63   2 2.66
                            59 2.71  33 2.73  79 2.77  77 2.77
  29  0.795  0.622  0.319-  39 2.54  42 2.56  75 2.57  32 2.62  44 2.64  33 2.65   1 2.67  61 2.68
                            49 2.69  27 2.79   7 2.80  12 2.82
  30  0.292  0.631  0.318-  79 2.56  64 2.61  52 2.62  44 2.63   2 2.64  26 2.65  33 2.66  18 2.70
                             3 2.72  14 2.77  16 2.83  25 2.85
  31  0.202  0.281  0.226-  70 2.53  55 2.55  65 2.57  57 2.60  43 2.60   3 2.63  39 2.68  80 2.70
                            42 2.70  21 2.71  68 2.75  64 2.79  22 3.39
  32  0.707  0.549  0.221-  54 2.53  69 2.56  51 2.58  49 2.59  42 2.60  29 2.62  65 2.62  78 2.62
                            26 2.68  75 2.70  67 2.70  44 2.71
  33  0.041  0.630  0.326-   3 2.59  39 2.64  29 2.65   1 2.66  30 2.66  16 2.67   2 2.68  12 2.69
                            64 2.71  28 2.73   5 2.74  42 2.75
  34  0.796  0.862  0.042-  50 2.38  66 2.51  48 2.53  71 2.55  36 2.56  63 2.61  20 2.71  62 2.76
                            35 2.77
  35  0.056  0.867  0.038-  58 2.54  72 2.55  36 2.56  24 2.57  66 2.62  53 2.64  23 2.72  62 2.73
                            34 2.77
  36  0.046  0.629  0.037-  21 2.53  35 2.56  34 2.56  58 2.59  50 2.62  47 2.63  72 2.64  40 2.69
                            71 2.73
  37  0.626  0.222  0.129-  74 2.51  51 2.52  67 2.52  56 2.53  68 2.55  20 2.55  59 2.55  41 2.56
                            62 2.60  66 2.66  57 2.72  48 2.87
  38  0.382  0.955  0.130-  53 2.47  80 2.48  45 2.50  78 2.53  48 2.54  63 2.55  73 2.55  54 2.57
                            55 2.58  57 2.62  24 2.64  70 2.69
  39  0.036  0.383  0.325-  29 2.54   3 2.56  22 2.58  75 2.59  33 2.64  10 2.67   7 2.68  31 2.68
                            42 2.69   5 2.72  65 2.77  43 2.78
  40  0.030  0.383  0.037-  69 2.44  21 2.52  71 2.53  76 2.56  70 2.57  23 2.61  36 2.69  45 2.78
                            47 2.79
  41  0.871  0.216  0.128-  76 2.46  65 2.52  77 2.53  67 2.54  37 2.56  69 2.57  62 2.58  51 2.59
                            23 2.61  70 2.65  66 2.66  24 2.72
  42  0.955  0.545  0.223-  50 2.55  29 2.56  21 2.59  28 2.60  32 2.60  69 2.60  49 2.63  65 2.64
                            64 2.66  39 2.69  31 2.70  33 2.75
  43  0.296  0.117  0.322-  52 2.53  55 2.54  19 2.57  61 2.57  22 2.58  31 2.60   8 2.60  80 2.67
                             3 2.70  10 2.71  13 2.76  39 2.78
  44  0.541  0.629  0.322-  61 2.57  52 2.59  30 2.63  18 2.64  78 2.64  29 2.64  75 2.65  27 2.68
                            15 2.69  14 2.69  32 2.71  26 2.76
  45  0.293  0.121  0.040-  70 2.49  38 2.50  57 2.56  53 2.60  23 2.62  63 2.64  20 2.68  47 2.75
                            40 2.78
  46  0.547  0.626  0.044-  51 2.37  73 2.39  54 2.41  71 2.56  53 2.57  63 2.58  76 2.59  56 2.63
                            72 2.64
  47  0.296  0.380  0.039-  74 2.41  21 2.53  72 2.61  56 2.61  57 2.61  36 2.63  20 2.67  45 2.75
                            40 2.79
  48  0.625  0.950  0.132-  49 2.40  80 2.47  54 2.48  34 2.53  38 2.54  59 2.55  50 2.57  63 2.57
                            20 2.58  57 2.65  66 2.68  37 2.87
  49  0.707  0.794  0.220-  48 2.40  50 2.48  54 2.49  80 2.54  32 2.59  78 2.61  28 2.62   1 2.62
                            42 2.63  61 2.63  29 2.69  59 2.70
  50  0.866  0.706  0.129-  34 2.38  71 2.42  54 2.48  49 2.48  42 2.55  48 2.57  28 2.58  69 2.58
                            36 2.62  21 2.64  66 2.75  58 2.85
[...]
   0.215E+02 0.649E+02 -.150E+04   -.209E+02 -.651E+02 0.150E+04   -.531E+00 0.226E+00 0.243E+01   -.480E-03 0.937E-05 -.667E-03
   0.372E+02 -.135E+02 -.155E+04   -.388E+02 0.137E+02 0.155E+04   0.166E+01 -.154E+00 0.204E+01   0.910E-03 0.267E-03 -.122E-02
   -.435E+01 0.247E+02 -.294E+04   0.444E+01 -.246E+02 0.294E+04   -.877E-01 -.119E+00 0.718E+00   -.123E-02 0.801E-03 0.996E-03
   -.113E+02 0.224E+01 -.293E+04   0.109E+02 -.192E+01 0.293E+04   0.461E+00 -.299E+00 0.149E+01   0.167E-02 0.766E-03 0.163E-02
   0.141E+01 0.451E+01 -.292E+04   -.139E+01 -.480E+01 0.292E+04   0.815E-02 0.251E+00 0.889E+00   0.121E-02 0.102E-02 0.953E-03
   -.172E+02 -.727E+01 -.296E+04   0.173E+02 0.691E+01 0.296E+04   -.138E+00 0.335E+00 0.135E+01   -.294E-02 0.660E-03 0.997E-03
   0.113E+02 -.161E+02 -.294E+04   -.116E+02 0.163E+02 0.293E+04   0.306E+00 -.150E+00 0.185E+01   -.181E-02 -.634E-03 0.134E-02
   -.198E+02 0.143E+02 -.295E+04   0.196E+02 -.141E+02 0.295E+04   0.120E+00 -.230E+00 0.104E+01   0.351E-03 0.140E-03 0.105E-02
   -.938E+01 0.295E+00 -.291E+04   0.973E+01 -.240E-01 0.291E+04   -.313E+00 -.245E+00 0.157E+01   -.106E-02 -.182E-02 0.149E-02
   -.756E+01 -.341E+01 -.295E+04   0.777E+01 0.325E+01 0.295E+04   -.247E+00 0.116E+00 0.684E+00   0.125E-02 0.815E-03 0.573E-03
   -.972E+01 -.722E+00 -.293E+04   0.100E+02 0.384E+00 0.292E+04   -.286E+00 0.333E+00 0.106E+01   -.970E-03 0.110E-02 0.832E-03
   0.228E+00 -.170E+02 -.293E+04   -.530E+00 0.168E+02 0.293E+04   0.310E+00 0.217E+00 0.794E+00   0.147E-02 0.361E-03 0.117E-02
   0.220E+02 0.751E+01 -.293E+04   -.216E+02 -.743E+01 0.293E+04   -.428E+00 -.893E-01 0.133E+01   0.137E-02 -.190E-03 0.524E-03
   0.209E+02 -.123E+02 -.294E+04   -.206E+02 0.125E+02 0.294E+04   -.271E+00 -.229E+00 0.121E+01   0.453E-03 0.190E-02 -.175E-03
   -.129E+01 0.286E+00 -.292E+04   0.999E+00 -.650E+00 0.292E+04   0.279E+00 0.350E+00 0.103E+01   0.922E-04 -.719E-03 0.946E-03
   0.284E+02 -.616E+01 -.294E+04   -.283E+02 0.632E+01 0.294E+04   -.167E+00 -.198E+00 0.950E+00   -.126E-02 -.647E-03 0.378E-04
   0.686E+02 -.711E+02 -.154E+04   -.674E+02 0.714E+02 0.154E+04   -.122E+01 -.244E+00 0.175E+01   0.678E-03 0.499E-03 -.625E-03
   0.306E+02 -.427E+02 -.153E+04   -.317E+02 0.423E+02 0.153E+04   0.109E+01 0.449E+00 0.242E+01   0.105E-02 -.223E-03 0.691E-04
   0.334E+02 0.330E+02 0.304E+04   -.336E+02 -.331E+02 -.304E+04   0.148E+00 0.112E+00 -.232E+01   0.536E-03 0.241E-03 -.831E-03
   0.377E+02 -.741E+01 0.160E+04   -.386E+02 0.812E+01 -.161E+04   0.902E+00 -.658E+00 0.932E+00   0.289E-03 0.274E-03 -.434E-03
   -.699E+02 0.107E+02 -.149E+04   0.708E+02 -.998E+01 0.149E+04   -.893E+00 -.676E+00 0.263E+01   -.877E-03 0.229E-03 0.144E-02
   -.552E+02 0.524E+02 0.309E+04   0.558E+02 -.515E+02 -.309E+04   -.662E+00 -.887E+00 -.207E+01   -.300E-03 -.162E-02 0.248E-03
   -.384E+00 -.545E+02 0.159E+04   0.674E+00 0.540E+02 -.159E+04   -.340E+00 0.442E+00 -.774E+00   0.581E-03 -.270E-03 -.298E-02
   0.878E+01 0.365E+00 -.293E+04   -.896E+01 -.345E+00 0.293E+04   0.177E+00 -.333E-01 0.648E+00   0.314E-03 0.319E-04 0.487E-03
   -.242E+02 -.898E+01 0.897E+01   0.242E+02 0.926E+01 -.103E+02   -.183E-01 -.332E+00 0.131E+01   -.374E-03 0.135E-04 0.379E-03
   -.120E+02 0.735E+01 -.294E+04   0.115E+02 -.750E+01 0.294E+04   0.505E+00 0.180E+00 0.126E+01   -.119E-02 -.149E-02 0.302E-03
   0.197E+02 0.649E+02 0.175E+01   -.206E+02 -.661E+02 -.215E+01   0.105E+01 0.116E+01 0.346E+00   -.428E-03 0.123E-03 -.584E-03
   -.653E+02 0.636E+01 -.149E+04   0.657E+02 -.762E+01 0.149E+04   -.359E+00 0.134E+01 0.281E+01   -.207E-02 -.814E-04 -.142E-02
   0.263E+02 0.260E+02 -.155E+04   -.261E+02 -.253E+02 0.154E+04   -.271E+00 -.683E+00 0.226E+01   0.173E-02 -.724E-03 -.107E-02
   0.221E+02 -.639E+02 -.845E+02   -.231E+02 0.633E+02 0.848E+02   0.103E+01 0.532E+00 -.244E+00   0.128E-02 0.782E-03 -.152E-03
   -.220E+02 -.227E+02 0.253E+01   0.228E+02 0.234E+02 -.326E+01   -.844E+00 -.722E+00 0.740E+00   0.873E-03 0.377E-03 0.219E-03
   0.190E+02 0.153E+02 -.125E+04   -.192E+02 -.156E+02 0.125E+04   0.158E+00 0.428E+00 0.326E+00   0.419E-03 0.277E-03 -.639E-03
   -.618E+02 -.391E+01 0.244E+04   0.621E+02 0.268E+01 -.244E+04   -.353E+00 0.126E+01 -.273E+01   0.139E-02 0.423E-03 -.156E-02
   0.315E+02 -.142E+02 0.247E+04   -.314E+02 0.128E+02 -.247E+04   -.135E+00 0.141E+01 -.232E+01   0.537E-03 0.744E-04 -.495E-03
   0.236E+02 -.513E+01 0.248E+04   -.237E+02 0.569E+01 -.248E+04   0.958E-01 -.587E+00 -.294E+01   0.116E-02 0.101E-02 -.673E-03
   0.363E+01 0.496E+02 0.129E+04   -.278E+01 -.490E+02 -.129E+04   -.869E+00 -.661E+00 -.164E+00   0.107E-03 -.803E-04 -.195E-03
   0.345E+02 -.547E+02 0.127E+04   -.344E+02 0.544E+02 -.127E+04   -.122E+00 0.212E+00 -.454E+00   -.846E-03 -.837E-03 -.837E-03
   -.545E+02 -.250E+02 -.125E+04   0.547E+02 0.251E+02 0.125E+04   -.128E+00 -.200E+00 0.629E+00   -.419E-03 0.249E-03 -.671E-03
   -.935E+02 0.214E+02 0.248E+04   0.932E+02 -.212E+02 -.248E+04   0.301E+00 -.188E+00 -.275E+01   -.137E-03 -.478E-03 -.348E-03
   -.332E+02 0.448E+02 0.130E+04   0.324E+02 -.444E+02 -.130E+04   0.826E+00 -.499E+00 -.482E+00   -.185E-03 -.288E-03 -.114E-02
   -.438E+02 0.217E+01 -.433E+02   0.435E+02 -.177E+01 0.431E+02   0.200E+00 -.422E+00 0.464E-01   -.619E-03 0.338E-03 -.495E-03
   0.129E+02 -.789E+02 -.126E+04   -.131E+02 0.787E+02 0.126E+04   0.181E+00 0.229E+00 0.102E+01   0.654E-03 -.274E-03 0.640E-04
   0.136E+02 0.265E+02 -.124E+04   -.137E+02 -.265E+02 0.124E+04   0.520E-01 -.462E-01 0.285E+00   -.276E-03 -.415E-03 0.109E-03
   0.153E+02 -.450E+02 0.245E+04   -.160E+02 0.443E+02 -.245E+04   0.660E+00 0.690E+00 -.270E+01   -.385E-03 -.108E-02 -.827E-04
   0.518E+01 -.195E+02 0.276E+04   -.524E+01 0.197E+02 -.275E+04   0.759E-01 -.199E+00 -.236E+01   -.965E-03 0.524E-03 -.894E-03
   0.121E+03 0.288E+02 0.279E+04   -.122E+03 -.282E+02 -.279E+04   0.381E+00 -.651E+00 -.238E+01   0.490E-03 0.712E-04 -.488E-03
   -.353E+02 -.266E+02 0.142E+04   0.349E+02 0.255E+02 -.142E+04   0.435E+00 0.111E+01 -.459E+00   -.624E-03 0.186E-03 0.726E-04
   -.587E+02 0.680E+02 0.198E+02   0.587E+02 -.679E+02 -.207E+02   0.202E-01 -.219E+00 0.897E+00   -.650E-03 -.478E-03 0.869E-03
   -.877E+02 0.192E+02 0.141E+04   0.872E+02 -.187E+02 -.141E+04   0.501E+00 -.489E+00 -.170E+00   0.433E-03 -.370E-03 0.218E-03
   -.200E+02 0.122E+02 0.139E+04   0.201E+02 -.124E+02 -.139E+04   -.147E+00 0.268E+00 -.128E+00   -.174E-03 0.597E-03 -.124E-02
   0.456E+02 0.887E+01 -.140E+04   -.454E+02 -.902E+01 0.140E+04   -.302E+00 0.189E+00 0.145E+01   0.177E-03 -.135E-02 0.225E-03
   0.523E+02 -.816E+02 0.276E+04   -.521E+02 0.815E+02 -.276E+04   -.325E+00 0.209E+00 -.245E+01   -.213E-03 -.928E-03 0.276E-03
   -.129E+02 0.705E+00 0.138E+04   0.130E+02 -.469E+00 -.138E+04   -.130E+00 -.251E+00 -.466E+00   -.198E-02 -.198E-05 0.411E-04
   0.178E+02 -.663E+02 -.209E+02   -.171E+02 0.658E+02 0.211E+02   -.779E+00 0.591E+00 -.316E+00   0.704E-03 -.124E-02 -.152E-02
   0.287E+02 0.327E+02 0.344E+04   -.288E+02 -.319E+02 -.344E+04   0.915E-01 -.813E+00 -.357E+01   0.121E-02 0.701E-03 -.101E-02
   0.650E+02 0.909E+01 0.173E+04   -.652E+02 -.978E+01 -.173E+04   0.147E+00 0.723E+00 -.232E+00   -.152E-03 0.190E-03 -.118E-03
   0.102E+03 -.338E+02 0.172E+04   -.102E+03 0.337E+02 -.172E+04   -.154E+00 0.285E-01 0.522E-01   0.107E-02 0.235E-03 -.139E-02
   0.157E+02 0.713E+02 0.753E+02   -.163E+02 -.711E+02 -.762E+02   0.567E+00 -.235E+00 0.816E+00   -.298E-03 0.516E-03 0.415E-03
   0.127E+02 0.526E+02 -.172E+04   -.122E+02 -.522E+02 0.172E+04   -.441E+00 -.469E+00 0.138E+01   -.106E-02 0.783E-03 -.190E-03
[...]
   0.711E+01 -.791E+02 0.424E+02   -.669E+01 0.780E+02 -.433E+02   -.426E+00 0.130E+01 0.728E+00   -.118E-02 0.492E-03 0.504E-03
   0.531E+02 -.361E+02 -.441E+01   -.525E+02 0.357E+02 0.400E+01   -.567E+00 0.401E+00 0.475E+00   0.611E-03 0.215E-03 -.190E-03
   -.729E+02 0.309E+01 0.156E+04   0.725E+02 -.299E+01 -.156E+04   0.410E+00 -.331E-01 -.143E+00   -.347E-03 -.454E-03 0.316E-03
   -.127E+02 0.221E+02 0.162E+04   0.130E+02 -.222E+02 -.162E+04   -.388E+00 0.178E+00 -.528E+00   0.209E-04 -.905E-03 -.123E-02
   -.999E+02 -.308E+01 0.309E+04   0.100E+03 0.316E+01 -.309E+04   -.493E+00 -.750E-01 -.137E+01   -.168E-02 0.532E-04 -.121E-02
   0.692E+02 -.528E+02 0.309E+04   -.696E+02 0.534E+02 -.309E+04   0.370E+00 -.629E+00 -.830E+00   0.113E-02 0.136E-02 -.707E-03
   0.129E+02 -.403E+02 0.155E+04   -.125E+02 0.401E+02 -.155E+04   -.408E+00 0.220E+00 -.304E-01   0.678E-03 0.852E-03 -.171E-02
   0.483E+02 0.197E+01 0.159E+04   -.478E+02 -.199E+01 -.159E+04   -.485E+00 0.654E-01 -.114E+00   0.236E-03 0.215E-03 -.185E-03
   -.379E+02 -.702E+02 -.156E+04   0.378E+02 0.703E+02 0.156E+04   0.135E+00 -.846E-01 0.733E+00   -.130E-02 0.594E-03 -.427E-04
   -.532E+02 0.302E+02 0.307E+04   0.536E+02 -.296E+02 -.307E+04   -.411E+00 -.558E+00 -.195E+01   -.123E-02 0.679E-05 -.128E-02
   -.490E+02 0.744E+02 0.689E+02   0.493E+02 -.741E+02 -.692E+02   -.354E+00 -.360E+00 0.183E+00   -.959E-03 0.247E-03 -.871E-03
   -.146E+01 0.612E+02 -.104E+02   0.139E+01 -.604E+02 0.102E+02   0.917E-01 -.837E+00 0.626E-01   0.534E-03 -.550E-03 -.118E-02
   0.476E+02 0.563E+01 -.357E+02   -.472E+02 -.499E+01 0.355E+02   -.422E+00 -.663E+00 0.136E+00   0.759E-03 -.145E-02 -.727E-03
   0.261E+02 -.472E+02 0.246E+02   -.265E+02 0.467E+02 -.249E+02   0.333E+00 0.475E+00 0.236E+00   0.453E-03 -.801E-03 -.329E-03
   -.221E+01 -.103E+01 -.804E+01   -.284E-13 -.973E-12 0.623E-11   0.223E+01 0.102E+01 0.806E+01   -.239E-02 0.937E-03 -.226E-01

 POSITION                                       TOTAL-FORCE (eV/Angst)
     12.95508      8.03424      6.98285         0.001431     -0.004007      0.005277
      5.11364      8.06749      6.94810         0.003209     -0.000383      0.003121
      4.96092      3.47778      7.03938         0.003891     -0.003053      0.001887
     14.31346      8.78997      9.32400         0.002053     -0.001142     -0.002752
      3.73096      4.22098      9.42281        -0.000042     -0.004394     -0.002303
      6.39793      8.78782      9.27693         0.001758     -0.001628     -0.000906
     11.66282      4.20421      9.38976         0.005455     -0.001817     -0.001536
      9.02578      8.77483      9.25363         0.005239     -0.002331     -0.002636
     10.34942      1.92852      9.26497         0.001436     -0.000496     -0.004390
      2.43832      1.92475      9.30591         0.000708     -0.000495     -0.002675
     11.66703      8.78362      9.31414        -0.000217     -0.001725     -0.001042
     12.98529      6.49497      9.37608         0.004883     -0.003674      0.001844
      5.05898      1.91165      9.35161         0.000362     -0.003205     -0.002534
      7.72548      6.50589      9.32259         0.000108     -0.002763     -0.000940
      9.04147      4.21384      9.30213         0.001954     -0.004870      0.001236
      5.06862      6.49903      9.37481         0.002573     -0.000560      0.001156
      7.71508      1.92253      9.28885         0.004742     -0.000436      0.000159
      7.77024      3.43844      6.98155        -0.002700     -0.000896     -0.000412
      6.30352      1.13729      6.92968         0.001499     -0.000246     -0.003518
      6.41386      1.13455      0.88133        -0.001042      0.000886     -0.000698
      3.70759      4.21596      2.80796         0.001644      0.000084      0.002516
      1.17363      1.25247      6.91373        -0.001232     -0.000971     -0.004166
      1.12063      1.20065      0.72664        -0.001989      0.002800     -0.002847
      6.43127      8.76925      2.90633         0.000007     -0.003037      0.001298
      6.38975      4.21510      9.38318         0.001061     -0.002013     -0.000267
      7.68628      4.98786      4.80740        -0.000298      0.001590      0.001420
     10.33328      6.50054      9.31908         0.001190     -0.000980      0.000906
     14.27192      7.21852      4.85852        -0.000283     -0.000637      0.003141
     11.68076      5.68619      7.01484         0.004462      0.002864      0.001776
      6.41414      5.77086      6.99628        -0.003307     -0.000730      0.003565
      3.61772      2.56946      4.96235        -0.000340      0.000781     -0.004216
     10.36317      5.01962      4.85179        -0.003100      0.004622      0.002286
      3.76228      5.76544      7.16333        -0.000771     -0.004457      0.001122
     12.95400      7.88475      0.92589        -0.005054      0.002354      0.002610
      5.16355      7.92806      0.83488        -0.003761     -0.001809      0.000528
      3.81070      5.75324      0.80319        -0.001525      0.001224      0.000293
      7.78007      2.03113      2.84046         0.000150      0.001350     -0.001822
      9.07337      8.73506      2.86311        -0.000976     -0.001209     -0.000810
      2.40201      3.50257      7.15801        -0.001388     -0.000626     -0.002483
      2.34006      3.50233      0.81730        -0.002218      0.000232      0.002048
     10.33667      1.97213      2.82466        -0.001113      0.000276     -0.000541
     12.95835      4.98083      4.91266        -0.000449      0.001691      0.001505
      3.73714      1.06776      7.08400        -0.000224     -0.001632     -0.002011
      9.03873      5.75137      7.09374         0.003018     -0.000216     -0.001288
      3.73396      1.10325      0.87506         0.000425      0.002413     -0.001620
      9.08735      5.72651      0.95990        -0.001764      0.002908     -0.002112
      5.12812      3.47256      0.85137        -0.001117      0.004412      0.000711
     11.61581      8.69181      2.91414         0.000974     -0.001201      0.003074
     11.65599      7.26427      4.83810        -0.002014     -0.000536      0.000922
     12.87208      6.45674      2.83048        -0.000430      0.004035      0.003431
      9.04125      4.21309      2.78886        -0.000426      0.001795     -0.001078
      7.77517      8.01383      6.99800         0.002553     -0.000138      0.001529
      7.80370      7.95029      0.89314         0.001090      0.001110     -0.003264
     10.39262      6.53292      2.82093        -0.002416      0.001099     -0.001212
      2.51775      0.26621      5.00119         0.001757      0.002912     -0.000378
      7.73853      3.48225      0.76338        -0.004166      0.000985     -0.000684
      5.06875      1.87963      2.92111         0.001489     -0.001891     -0.001538
      5.16085      6.45092      2.89502        -0.002343      0.002185     -0.002621
      7.71224      0.45965      4.85138        -0.000144      0.000054      0.000250
      9.05744      1.18717      6.98732        -0.000136      0.000150      0.001911
[...]
     14.28736      8.81746      2.83799        -0.003263      0.003605     -0.000914
      9.07182      2.64884      4.91607         0.001535     -0.001465     -0.001927
      6.36436      2.66813      4.86115         0.000409      0.000298      0.000521
     11.65551      4.18075      2.80439        -0.003917      0.004180      0.000943
      2.43063      1.90851      2.83261        -0.001197      0.000309      0.001150
     11.64613      5.70101      0.88077         0.001172      0.002391      0.005917
      6.44877      5.72403      0.92737        -0.002247      0.001752      0.001761
      7.82428      6.51254      2.83450        -0.002334     -0.001112     -0.001840
      6.41250      4.13208      2.78168        -0.000173      0.002407     -0.000230
     10.37788      3.47043      7.06009        -0.000476      0.002270     -0.002507
     10.33926      3.45548      0.86146         0.000017      0.000126      0.000451
     10.36228      0.48395      4.87436        -0.001817     -0.002607      0.001467
      9.04408      7.28487      4.94092         0.002840     -0.001015      0.000031
      6.47569      7.29921      4.93977         0.000512      0.001295     -0.000886
      5.04109      0.27899      4.88887        -0.000726      0.000315     -0.002603
    total drift:                                0.013522     -0.002149     -0.004949

  FREE ENERGIE OF THE ION-ELECTRON SYSTEM (eV)
  free  energy   TOTEN  =      -507.79991053 eV

  energy  without entropy=     -507.81332512  energy(sigma->0) =     -507.80438206

 d Force = 0.5328652E-04[ 0.384E-04, 0.682E-04]  d Energy = 0.5477545E-04-0.149E-05
 d Force =-0.1050504E+01[-0.105E+01,-0.105E+01]  d Ewald  =-0.1050503E+01-0.107E-05

 Quasi-Newton relaxation of ions (Broydens 2nd method)
  g(Force)  = 0.113E-05   g(Stress)= 0.000E+00

 retain information from N=  1 steps
 eigenvalues of (default step * inverse Hessian matrix)
  average eigenvalue of G=  37.3112
 eigenvalue spectrum of G is 37.3112

 reached required accuracy - stopping structural energy minimisation