 vasp.5.4.4.18Apr17-6-g9f103f2a35 (build Nov 30 2020 22:55:02) complex

 executed on             LinuxIFC date 2023.09.10  22:57:41

 INCAR:
 POTCAR:    PAW_PBE Pt 04Feb2005
 POTCAR:    PAW_PBE H 15Jun2001
 POTCAR:    PAW_PBE Pt 04Feb2005
   VRHFIN =Pt: s1d9

   TITEL  = PAW_PBE Pt 04Feb2005
   POMASS =  195.080; ZVAL   =   10.000    mass and valenz
   ENMAX  =  230.283; ENMIN  =  172.712 eV

 POTCAR:    PAW_PBE H 15Jun2001
   VRHFIN =H: ultrasoft test

   TITEL  = PAW_PBE H 15Jun2001
   POMASS =    1.000; ZVAL   =    1.000    mass and valenz
   ENMAX  =  250.000; ENMIN  =  200.000 eV

 Optimization of the real space projectors (new method)

 maximal supplied QI-value         = 14.36
 optimisation between [QCUT,QGAM] = [ 11.92, 23.98] = [ 39.79,161.09] Ry
 Optimized for a Real-space Cutoff    1.49 Angstroem

   l    n(q)    QCUT    max X(q) W(low)/X(q) W(high)/X(q)  e(spline)
   2     10    11.920    66.195    0.79E-04    0.18E-03    0.24E-06
   2     10    11.920    64.643    0.81E-04    0.19E-03    0.24E-06
   0     11    11.920    95.520    0.28E-04    0.54E-04    0.18E-06
   0     11    11.920    63.403    0.27E-04    0.52E-04    0.17E-06
   1     10    11.920    19.961    0.18E-04    0.11E-03    0.23E-06
   1     10    11.920    13.289    0.25E-04    0.87E-04    0.19E-06
 Optimization of the real space projectors (new method)

 maximal supplied QI-value         = 34.20
 optimisation between [QCUT,QGAM] = [ 11.97, 23.94] = [ 40.13,160.53] Ry
 Optimized for a Real-space Cutoff    1.18 Angstroem

   l    n(q)    QCUT    max X(q) W(low)/X(q) W(high)/X(q)  e(spline)
   0      8    11.971    19.460    0.15E-03    0.31E-03    0.25E-06
   0      8    11.971    12.209    0.13E-03    0.29E-03    0.25E-06
   1      8    11.971     4.655    0.22E-03    0.24E-03    0.21E-06
  PAW_PBE Pt 04Feb2005                  :
  PAW_PBE H 15Jun2001                   :

 POSCAR: Pt111\(1\1\1)\(2)
  positions in cartesian coordinates
 exchange correlation table for  LEXCH =        8
   RHO(1)=    0.500       N(1)  =     2000
   RHO(2)=  100.500       N(2)  =     4000

 ion  position               nearest neighbor table
   1  1.000  0.000  0.056-   5 2.64   9 2.64  13 2.64  29 2.64  57 2.64  37 2.64  42 2.87  14 2.87
                            54 2.87
   2  0.333  0.167  0.178-  30 2.64  26 2.64  38 2.64  42 2.64  14 2.64   6 2.64  15 2.84   7 2.84
                            11 2.84   9 2.87  21 2.87  13 2.87
   3  0.167  0.333  0.297-  39 2.64  27 2.64  43 2.64   7 2.64  15 2.64  31 2.64  14 2.84   6 2.84
                            10 2.84  12 2.87   8 2.87  48 2.87
   4  0.000  1.000  0.419-   8 2.64  12 2.64  16 2.64  32 2.64  40 2.64  60 2.64  27 2.87   7 2.87
                            63 2.87
   5  1.000  0.250  0.056-   1 2.64  45 2.64  33 2.64   9 2.64  29 2.64  25 2.64  14 2.87  10 2.87
                            18 2.87
   6  0.333  0.417  0.178-  26 2.64  62 2.64  10 2.64  34 2.64  14 2.64   2 2.64  43 2.84   3 2.84
                            15 2.84  45 2.87  49 2.87   9 2.87
   7  0.167  0.083  0.297-  27 2.64  15 2.64   3 2.64  63 2.64  11 2.64  35 2.64  42 2.84   2 2.84
                            14 2.84  16 2.87   4 2.87  12 2.87
   8  0.000  0.250  0.419-   4 2.64  48 2.64  36 2.64  12 2.64  32 2.64  28 2.64  31 2.87   3 2.87
                            27 2.87
   9  0.250  0.250  0.056-  21 2.64  13 2.64   1 2.64  49 2.64  45 2.64   5 2.64   2 2.87  14 2.87
                             6 2.87
  10  0.083  0.417  0.178-  34 2.64   6 2.64  46 2.64  14 2.64  18 2.64  22 2.64  39 2.84  31 2.84
                             3 2.84  33 2.87  45 2.87   5 2.87
  11  0.417  0.083  0.297-  19 2.64  15 2.64   7 2.64  47 2.64  35 2.64  23 2.64  30 2.84  38 2.84
                             2 2.84  20 2.87  16 2.87  24 2.87
  12  0.250  0.250  0.419-  65 2.07  24 2.64  16 2.64   4 2.64  52 2.64  48 2.64   8 2.64   3 2.87
                            15 2.87   7 2.87
  13  0.250  0.000  0.056-  21 2.64   9 2.64  17 2.64   1 2.64  37 2.64  41 2.64  38 2.87   2 2.87
                            42 2.87
  14  0.083  0.167  0.178-  42 2.64  54 2.64   6 2.64   2 2.64  10 2.64  18 2.64  27 2.84   3 2.84
                             7 2.84   5 2.87   1 2.87   9 2.87
  15  0.417  0.333  0.297-  43 2.64   7 2.64   3 2.64  11 2.64  55 2.64  19 2.64  26 2.84   2 2.84
                             6 2.84  24 2.87  12 2.87  52 2.87
  16  0.250  1.000  0.419-  24 2.64  12 2.64  20 2.64   4 2.64  40 2.64  44 2.64   7 2.87  11 2.87
                            35 2.87
  17  0.500  0.000  0.056-  29 2.64  25 2.64  13 2.64  21 2.64  41 2.64  53 2.64  58 2.87  30 2.87
                            38 2.87
  18  0.833  0.167  0.178-  54 2.64  58 2.64  22 2.64  10 2.64  30 2.64  14 2.64  23 2.84  31 2.84
                            27 2.84  25 2.87  29 2.87   5 2.87
  19  0.667  0.333  0.297-  55 2.64  31 2.64  59 2.64  11 2.64  23 2.64  15 2.64  22 2.84  30 2.84
                            26 2.84  28 2.87  64 2.87  24 2.87
  20  0.500  1.000  0.419-  32 2.64  28 2.64  16 2.64  24 2.64  44 2.64  56 2.64  11 2.87  23 2.87
                            47 2.87
  21  0.500  0.250  0.056-  25 2.64  61 2.64   9 2.64  13 2.64  49 2.64  17 2.64  30 2.87   2 2.87
                            26 2.87
  22  0.833  0.417  0.178-  50 2.64  26 2.64  30 2.64  18 2.64  46 2.64  10 2.64  19 2.84  59 2.84
                            31 2.84  61 2.87  25 2.87  33 2.87
  23  0.667  0.083  0.297-  27 2.64  31 2.64  19 2.64  51 2.64  47 2.64  11 2.64  18 2.84  58 2.84
                            30 2.84  32 2.87  28 2.87  20 2.87
  24  0.500  0.250  0.419-  28 2.64  64 2.64  12 2.64  16 2.64  52 2.64  20 2.64  15 2.87  11 2.87
                            19 2.87
  25  0.750  0.250  0.056-  17 2.64  21 2.64  29 2.64  61 2.64  33 2.64   5 2.64  18 2.87  22 2.87
                            30 2.87
  26  0.583  0.417  0.178-   6 2.64   2 2.64  22 2.64  30 2.64  62 2.64  50 2.64  55 2.84  15 2.84
                            19 2.84  49 2.87  61 2.87  21 2.87
  27  0.917  0.083  0.297-  23 2.64   7 2.64   3 2.64  51 2.64  31 2.64  63 2.64  54 2.84  14 2.84
                            18 2.84   4 2.87   8 2.87  32 2.87
  28  0.750  0.250  0.419-  20 2.64  24 2.64  32 2.64  64 2.64  36 2.64   8 2.64  19 2.87  23 2.87
                            31 2.87
  29  0.750  0.000  0.056-  17 2.64  25 2.64   5 2.64  53 2.64   1 2.64  57 2.64  54 2.87  18 2.87
                            58 2.87
  30  0.583  0.167  0.178-   2 2.64  38 2.64  58 2.64  26 2.64  22 2.64  18 2.64  11 2.84  19 2.84
                            23 2.84  21 2.87  17 2.87  25 2.87
  31  0.917  0.333  0.297-  59 2.64  19 2.64  23 2.64  39 2.64   3 2.64  27 2.64  18 2.84  10 2.84
                            22 2.84   8 2.87  36 2.87  28 2.87
  32  0.750  1.000  0.419-  20 2.64  28 2.64   8 2.64  56 2.64   4 2.64  60 2.64  23 2.87  27 2.87
                            51 2.87
  33  1.000  0.500  0.056-  37 2.64  41 2.64   5 2.64  45 2.64  25 2.64  61 2.64  10 2.87  46 2.87
                            22 2.87
  34  0.333  0.667  0.178-  62 2.64  10 2.64  58 2.64  46 2.64   6 2.64  38 2.64  47 2.84  39 2.84
                            43 2.84  41 2.87  45 2.87  53 2.87
  35  0.167  0.833  0.297-  63 2.64  59 2.64   7 2.64  11 2.64  47 2.64  39 2.64  46 2.84  38 2.84
                            42 2.84  44 2.87  40 2.87  16 2.87
  36  0.000  0.500  0.419-  40 2.64  44 2.64   8 2.64  48 2.64  28 2.64  64 2.64  59 2.87  39 2.87
                            31 2.87
  37  1.000  0.750  0.056-  33 2.64  41 2.64  61 2.64  57 2.64  13 2.64   1 2.64  46 2.87  50 2.87
                            42 2.87
  38  0.333  0.917  0.178-  58 2.64  30 2.64   2 2.64  42 2.64  34 2.64  46 2.64  11 2.84  35 2.84
                            47 2.84  13 2.87  17 2.87  41 2.87
  39  0.167  0.583  0.297-   3 2.64  31 2.64  59 2.64  43 2.64  47 2.64  35 2.64  10 2.84  34 2.84
                            46 2.84  48 2.87  36 2.87  44 2.87
  40  0.000  0.750  0.419-  36 2.64  44 2.64  64 2.64  60 2.64  16 2.64   4 2.64  63 2.87  35 2.87
                            59 2.87
  41  0.250  0.750  0.056-  45 2.64  33 2.64  37 2.64  53 2.64  17 2.64  13 2.64  34 2.87  46 2.87
                            38 2.87
  42  0.083  0.917  0.178-  14 2.64   2 2.64  38 2.64  46 2.64  50 2.64  54 2.64   7 2.84  63 2.84
                            35 2.84   1 2.87  13 2.87  37 2.87
  43  0.417  0.583  0.297-  15 2.64   3 2.64  39 2.64  51 2.64  47 2.64  55 2.64  62 2.84   6 2.84
                            34 2.84  52 2.87  56 2.87  48 2.87
  44  0.250  0.750  0.419-  48 2.64  36 2.64  40 2.64  56 2.64  20 2.64  16 2.64  35 2.87  39 2.87
                            47 2.87
  45  0.250  0.500  0.056-  41 2.64  53 2.64   5 2.64   9 2.64  49 2.64  33 2.64   6 2.87  10 2.87
                            34 2.87
  46  0.083  0.667  0.178-  34 2.64  50 2.64  10 2.64  42 2.64  22 2.64  38 2.64  59 2.84  35 2.84
                            39 2.84  37 2.87  33 2.87  41 2.87
  47  0.417  0.833  0.297-  39 2.64  43 2.64  11 2.64  23 2.64  35 2.64  51 2.64  58 2.84  34 2.84
                            38 2.84  56 2.87  44 2.87  20 2.87
  48  0.250  0.500  0.419-  65 2.07  44 2.64  56 2.64   8 2.64  12 2.64  36 2.64  52 2.64  39 2.87
                             3 2.87  43 2.87
  49  0.500  0.500  0.056-  61 2.64  53 2.64  57 2.64  21 2.64   9 2.64  45 2.64  26 2.87   6 2.87
                            62 2.87
  50  0.833  0.667  0.178-  22 2.64  46 2.64  26 2.64  42 2.64  54 2.64  62 2.64  55 2.84  63 2.84
                            59 2.84  57 2.87  61 2.87  37 2.87
  51  0.667  0.833  0.297-  63 2.64  27 2.64  43 2.64  55 2.64  23 2.64  47 2.64  54 2.84  62 2.84
                            58 2.84  60 2.87  32 2.87  56 2.87
  52  0.500  0.500  0.419-  65 2.07  64 2.64  56 2.64  60 2.64  24 2.64  12 2.64  48 2.64  43 2.87
                            15 2.87  55 2.87
  53  0.500  0.750  0.056-  49 2.64  57 2.64  45 2.64  41 2.64  29 2.64  17 2.64  62 2.87  34 2.87
                            58 2.87
  54  0.833  0.917  0.178-  18 2.64  14 2.64  50 2.64  58 2.64  42 2.64  62 2.64  51 2.84  27 2.84
                            63 2.84  29 2.87   1 2.87  57 2.87
  55  0.667  0.583  0.297-  19 2.64  59 2.64  63 2.64  15 2.64  51 2.64  43 2.64  50 2.84  26 2.84
                            62 2.84  64 2.87  60 2.87  52 2.87
  56  0.500  0.750  0.419-  52 2.64  60 2.64  48 2.64  44 2.64  32 2.64  20 2.64  47 2.87  43 2.87
                            51 2.87
  57  0.750  0.750  0.056-  61 2.64  49 2.64  53 2.64  37 2.64   1 2.64  29 2.64  50 2.87  62 2.87
                            54 2.87
  58  0.583  0.917  0.178-  38 2.64  30 2.64  18 2.64  34 2.64  62 2.64  54 2.64  47 2.84  23 2.84
                            51 2.84  17 2.87  29 2.87  53 2.87
  59  0.917  0.583  0.297-  31 2.64  55 2.64  19 2.64  39 2.64  35 2.64  63 2.64  22 2.84  46 2.84
                            50 2.84  36 2.87  40 2.87  64 2.87
  60  0.750  0.750  0.419-  64 2.64  52 2.64  56 2.64  40 2.64   4 2.64  32 2.64  51 2.87  55 2.87
                            63 2.87
  61  0.750  0.500  0.056-  49 2.64  57 2.64  21 2.64  25 2.64  37 2.64  33 2.64  22 2.87  26 2.87
[...]

  FORCE on cell =-STRESS in cart. coord.  units (eV):
  Direction    XX          YY          ZZ          XY          YZ          ZX
  Alpha Z  2019.82281  2019.82281  2019.82281
  Ewald  162551.17510162551.20372************     0.00107     0.01145    -0.01005
  Hartree173443.89014173443.89824************     0.00054     0.00205    -0.00268
  E(xc)   -2859.05717 -2859.05691 -2884.74466     0.00017     0.00014    -0.00026
  Local  ************************358125.73841     0.00072    -0.00871     0.00727
  n-local   575.90702   575.91016   314.43620     0.00105    -0.00000     0.00108
  augment  3253.00667  3253.00276  3534.15864    -0.00224    -0.00181     0.00220
  Kinetic  9157.52023  9157.51207  9753.33161    -0.00310    -0.00405     0.00419
  Fock        0.00000     0.00000     0.00000     0.00000     0.00000     0.00000
  vdW       -53.61452   -53.61487   -28.85653    -0.00031     0.00007    -0.00012
  Total      81.95410    81.95285    -0.78624    -0.00210    -0.00087     0.00165
  in kB      67.98182    67.98078    -0.65220    -0.00174    -0.00072     0.00136

 VOLUME and BASIS-vectors are now :
  energy-cutoff  :      550.00
  volume of cell :     1931.47
      direct lattice vectors                 reciprocal lattice vectors
    10.560000420  0.000000000  0.000000000     0.094696966  0.054673319  0.000000000
    -5.280000210  9.145228627  0.000000000     0.000000000  0.109346638  0.000000000
     0.000000000  0.000000000 20.000000000     0.000000000  0.000000000  0.050000000

  length of vectors
    10.560000420 10.560000420 20.000000000     0.109346638  0.109346638  0.050000000

 FORCES acting on ions
    electron-ion (+dipol)            ewald-force                    non-local-force                 convergence-correction
   -.302E+00 -.329E+00 0.231E+04   0.302E+00 0.311E+00 -.231E+04   0.133E-02 0.104E-02 -.111E+00   0.110E-02 -.983E-02 -.136E-01
   0.299E+01 -.308E+01 0.779E+03   -.305E+01 0.309E+01 -.778E+03   0.212E-04 0.300E-01 -.296E+00   0.289E-02 -.954E-02 -.184E-01
   -.557E+01 -.321E+01 -.790E+03   0.572E+01 0.330E+01 0.790E+03   -.159E+00 -.920E-01 0.342E+00   -.759E-04 -.256E-03 -.124E-02
   0.410E+01 0.624E+01 -.230E+04   -.405E+01 -.614E+01 0.230E+04   -.555E-01 -.604E-01 0.767E-01   -.441E-02 -.198E-01 0.673E-02
   -.638E+00 -.368E+00 0.231E+04   0.661E+00 0.381E+00 -.231E+04   0.144E-02 0.867E-03 -.373E-01   -.848E-02 -.465E-02 -.149E-01
   -.157E-02 0.133E-02 0.776E+03   0.135E-02 -.107E-02 -.775E+03   0.810E-05 0.322E-05 -.371E+00   0.173E-03 -.263E-03 -.118E-01
   0.103E-02 -.302E+01 -.781E+03   -.127E-02 0.332E+01 0.781E+03   0.392E-04 -.271E+00 0.315E+00   0.258E-03 -.115E-01 0.261E-01
   0.471E+01 0.271E+01 -.227E+04   -.484E+01 -.279E+01 0.227E+04   0.120E+00 0.693E-01 0.316E-01   0.181E-01 0.107E-01 0.546E-01
   0.145E-03 -.421E+00 0.231E+04   -.362E-03 0.451E+00 -.231E+04   -.326E-04 -.726E-02 -.703E-01   0.180E-03 -.102E-01 -.177E-01
   -.416E+01 -.105E+01 0.779E+03   0.420E+01 0.109E+01 -.778E+03   0.259E-01 -.150E-01 -.296E+00   -.982E-02 0.248E-02 -.185E-01
   0.194E+01 0.264E+00 -.764E+03   -.198E+01 -.221E+00 0.763E+03   0.474E-01 -.394E-01 0.384E+00   -.516E-02 -.197E-01 0.225E-01
   -.655E-03 0.185E+02 -.232E+04   0.988E-03 -.193E+02 0.232E+04   -.588E-03 0.832E+00 -.341E+00   -.142E-03 -.134E-01 -.649E-02
   0.302E+00 -.329E+00 0.231E+04   -.302E+00 0.311E+00 -.231E+04   -.141E-02 0.102E-02 -.111E+00   -.739E-03 -.983E-02 -.134E-01
   -.299E+01 -.308E+01 0.779E+03   0.305E+01 0.309E+01 -.778E+03   -.124E-05 0.300E-01 -.296E+00   -.245E-02 -.946E-02 -.184E-01
   0.557E+01 -.321E+01 -.790E+03   -.572E+01 0.330E+01 0.790E+03   0.159E+00 -.916E-01 0.341E+00   0.239E-03 -.204E-03 -.152E-02
   -.411E+01 0.625E+01 -.230E+04   0.405E+01 -.616E+01 0.230E+04   0.556E-01 -.610E-01 0.766E-01   0.449E-02 -.201E-01 0.665E-02
   0.201E+00 0.116E+00 0.231E+04   -.191E+00 -.111E+00 -.231E+04   0.131E-02 0.796E-03 -.103E+00   0.638E-03 0.679E-03 -.125E-01
   -.697E+00 -.400E+00 0.783E+03   0.720E+00 0.412E+00 -.783E+03   -.175E-01 -.102E-01 -.379E+00   -.765E-02 -.397E-02 -.229E-01
   0.741E+00 -.181E+01 -.764E+03   -.800E+00 0.182E+01 0.763E+03   0.578E-01 -.215E-01 0.384E+00   0.146E-01 0.143E-01 0.225E-01
   0.517E+00 0.304E+00 -.231E+04   -.449E+00 -.264E+00 0.231E+04   -.755E-01 -.439E-01 0.989E-01   -.201E-01 -.117E-01 0.888E-02
   0.638E+00 -.368E+00 0.231E+04   -.661E+00 0.382E+00 -.231E+04   -.151E-02 0.870E-03 -.373E-01   0.848E-02 -.485E-02 -.148E-01
   -.226E-02 -.143E+01 0.783E+03   0.242E-02 0.143E+01 -.783E+03   0.248E-04 0.117E-01 -.458E+00   -.172E-03 0.507E-02 -.210E-01
   -.461E-02 0.202E-02 -.777E+03   0.470E-02 -.224E-02 0.777E+03   0.115E-03 -.504E-04 0.452E+00   0.839E-05 0.194E-03 -.103E-01
   -.470E+01 0.271E+01 -.227E+04   0.483E+01 -.279E+01 0.227E+04   -.120E+00 0.692E-01 0.315E-01   -.181E-01 0.106E-01 0.546E-01
   -.420E-03 -.233E+00 0.231E+04   0.550E-03 0.221E+00 -.231E+04   -.306E-04 -.155E-02 -.103E+00   -.178E-03 -.796E-03 -.124E-01
   0.416E+01 -.105E+01 0.779E+03   -.420E+01 0.110E+01 -.778E+03   -.259E-01 -.150E-01 -.296E+00   0.982E-02 0.217E-02 -.184E-01
   -.193E+01 0.258E+00 -.764E+03   0.197E+01 -.215E+00 0.763E+03   -.479E-01 -.392E-01 0.383E+00   0.492E-02 -.196E-01 0.229E-01
   -.418E-02 -.596E+00 -.231E+04   0.397E-02 0.517E+00 0.231E+04   -.115E-03 0.873E-01 0.988E-01   0.188E-03 0.233E-01 0.881E-02
   -.202E+00 0.116E+00 0.231E+04   0.192E+00 -.111E+00 -.231E+04   -.139E-02 0.797E-03 -.103E+00   -.997E-03 0.682E-03 -.126E-01
   0.693E+00 -.400E+00 0.783E+03   -.715E+00 0.413E+00 -.783E+03   0.176E-01 -.101E-01 -.379E+00   0.721E-02 -.403E-02 -.230E-01
   -.743E+00 -.180E+01 -.764E+03   0.802E+00 0.182E+01 0.763E+03   -.578E-01 -.216E-01 0.383E+00   -.148E-01 0.143E-01 0.228E-01
   -.515E+00 0.295E+00 -.231E+04   0.446E+00 -.256E+00 0.231E+04   0.758E-01 -.436E-01 0.989E-01   0.199E-01 -.113E-01 0.886E-02
   -.436E+00 -.969E-01 0.231E+04   0.421E+00 0.106E+00 -.231E+04   0.153E-02 0.695E-03 -.111E+00   -.825E-02 0.571E-02 -.135E-01
   -.117E+01 0.413E+01 0.779E+03   0.115E+01 -.418E+01 -.778E+03   0.260E-01 -.150E-01 -.296E+00   -.720E-02 0.705E-02 -.186E-01
   -.439E+00 -.256E+00 -.768E+03   0.442E+00 0.258E+00 0.767E+03   0.447E-02 0.269E-02 0.400E+00   0.461E-02 0.284E-02 0.198E-01
   0.746E+01 0.434E+00 -.230E+04   -.735E+01 -.431E+00 0.230E+04   -.802E-01 -.179E-01 0.766E-01   -.195E-01 0.598E-02 0.671E-02
   -.342E-04 -.198E-03 0.231E+04   -.230E-03 0.351E-03 -.231E+04   -.219E-05 0.321E-04 -.142E+00   0.179E-03 -.147E-03 -.106E-01
   0.124E+01 0.719E+00 0.783E+03   -.124E+01 -.717E+00 -.783E+03   -.101E-01 -.585E-02 -.458E+00   -.461E-02 -.231E-02 -.210E-01
   -.262E+01 0.151E+01 -.781E+03   0.287E+01 -.166E+01 0.781E+03   -.234E+00 0.135E+00 0.314E+00   -.102E-01 0.572E-02 0.262E-01
   -.958E-02 0.360E-03 -.230E+04   0.923E-02 -.248E-03 0.230E+04   0.363E-03 -.814E-04 0.631E-01   0.287E-03 -.106E-03 0.437E-01
   -.134E+00 0.426E+00 0.231E+04   0.119E+00 -.417E+00 -.231E+04   0.142E-03 -.167E-02 -.111E+00   -.916E-02 0.419E-02 -.135E-01
   0.147E-02 -.229E+01 0.780E+03   -.181E-02 0.230E+01 -.780E+03   -.372E-05 0.128E-01 -.364E+00   0.296E-03 -.985E-02 -.199E-01
   0.221E-02 0.643E+01 -.790E+03   -.226E-02 -.660E+01 0.790E+03   0.208E-03 0.183E+00 0.341E+00   -.370E-04 -.717E-04 -.128E-02
   0.336E+01 -.669E+01 -.230E+04   -.331E+01 0.659E+01 0.230E+04   -.248E-01 0.788E-01 0.766E-01   -.151E-01 0.139E-01 0.673E-02
   -.364E+00 0.211E+00 0.231E+04   0.391E+00 -.226E+00 -.231E+04   -.633E-02 0.366E-02 -.702E-01   -.895E-02 0.506E-02 -.178E-01
   -.198E+01 0.115E+01 0.780E+03   0.199E+01 -.115E+01 -.780E+03   0.111E-01 -.642E-02 -.364E+00   -.871E-02 0.489E-02 -.200E-01
   0.119E+01 0.155E+01 -.764E+03   -.118E+01 -.161E+01 0.763E+03   -.102E-01 0.609E-01 0.383E+00   -.199E-01 0.576E-02 0.229E-01
   0.160E+02 -.925E+01 -.232E+04   -.167E+02 0.965E+01 0.232E+04   0.719E+00 -.416E+00 -.342E+00   -.117E-01 0.662E-02 -.642E-02
   0.364E+00 0.211E+00 0.231E+04   -.391E+00 -.226E+00 -.231E+04   0.627E-02 0.366E-02 -.703E-01   0.896E-02 0.486E-02 -.178E-01
   0.198E+01 0.114E+01 0.780E+03   -.199E+01 -.115E+01 -.780E+03   -.111E-01 -.640E-02 -.364E+00   0.883E-02 0.462E-02 -.200E-01
   -.119E+01 0.154E+01 -.764E+03   0.117E+01 -.160E+01 0.763E+03   0.101E-01 0.612E-01 0.383E+00   0.197E-01 0.574E-02 0.229E-01
   -.160E+02 -.924E+01 -.232E+04   0.167E+02 0.964E+01 0.232E+04   -.722E+00 -.416E+00 -.340E+00   0.117E-01 0.671E-02 -.639E-02
   0.494E-04 0.736E+00 0.231E+04   0.898E-04 -.763E+00 -.231E+04   -.370E-04 -.168E-02 -.373E-01   -.177E-03 0.965E-02 -.151E-01
   -.124E+01 0.716E+00 0.783E+03   0.124E+01 -.715E+00 -.783E+03   0.101E-01 -.587E-02 -.458E+00   0.459E-02 -.249E-02 -.210E-01
   0.262E+01 0.151E+01 -.781E+03   -.287E+01 -.166E+01 0.781E+03   0.234E+00 0.135E+00 0.315E+00   0.102E-01 0.543E-02 0.261E-01
   0.241E-02 -.543E+01 -.227E+04   -.205E-02 0.559E+01 0.227E+04   -.102E-03 -.138E+00 0.316E-01   -.233E-03 -.210E-01 0.548E-01
   0.134E+00 0.426E+00 0.231E+04   -.119E+00 -.417E+00 -.231E+04   -.234E-03 -.168E-02 -.111E+00   0.916E-02 0.398E-02 -.136E-01
   -.209E-02 0.803E+00 0.783E+03   0.232E-02 -.829E+00 -.783E+03   0.331E-04 0.203E-01 -.379E+00   -.275E-03 0.884E-02 -.230E-01
   0.209E-02 0.506E+00 -.768E+03   -.196E-02 -.509E+00 0.767E+03   -.521E-04 -.513E-02 0.400E+00   -.712E-04 -.553E-02 0.197E-01
   -.335E+01 -.667E+01 -.230E+04   0.330E+01 0.657E+01 0.230E+04   0.246E-01 0.781E-01 0.767E-01   0.151E-01 0.137E-01 0.677E-02
   0.436E+00 -.971E-01 0.231E+04   -.421E+00 0.106E+00 -.231E+04   -.160E-02 0.699E-03 -.111E+00   0.824E-02 0.550E-02 -.134E-01
   0.117E+01 0.413E+01 0.779E+03   -.115E+01 -.418E+01 -.778E+03   -.259E-01 -.150E-01 -.296E+00   0.708E-02 0.678E-02 -.185E-01
   0.440E+00 -.253E+00 -.768E+03   -.444E+00 0.255E+00 0.767E+03   -.451E-02 0.254E-02 0.400E+00   -.444E-02 0.265E-02 0.198E-01
   -.746E+01 0.433E+00 -.230E+04   0.734E+01 -.429E+00 0.230E+04   0.802E-01 -.178E-01 0.767E-01   0.195E-01 0.606E-02 0.664E-02
   -.108E-01 -.120E-02 -.293E+03   0.122E-01 0.137E-02 0.295E+03   -.117E-02 -.129E-03 -.170E+01   -.992E-05 -.185E-05 0.123E-02
   0.388E-02 0.229E-03 0.311E+01   -.639E-12 0.204E-12 -.131E-11   -.405E-02 -.235E-03 -.308E+01   -.431E-03 0.232E-03 -.256E-01

 POSITION                                       TOTAL-FORCE (eV/Angst)
     10.55998      0.00001      1.11585         0.001868     -0.026664     -0.006667
      2.63997      1.52422      3.55048        -0.053491      0.027722      0.037997
      0.00925      3.05373      5.97633         0.000367     -0.000172     -0.018535
     -0.00104     -0.00210      8.38082         0.001048      0.017854     -0.003660
      9.23998      2.28632      1.11585         0.015788      0.009188      0.012017
      1.31997      3.81053      3.55048        -0.000023     -0.000001      0.262125
      1.32004      0.77554      5.96838         0.000071      0.012063      0.002010
     -1.32941      2.28082      8.34017         0.006883      0.003924     -0.027551
      1.31998      2.28632      1.11585        -0.000060      0.012867     -0.051014
     -1.32003      3.81053      3.55048         0.050643      0.032458      0.037962
      3.95840      0.76178      5.93966        -0.006939     -0.012415     -0.008828
      1.32006      2.25967      8.50406        -0.000380     -0.002764      0.036245
      2.63998      0.00001      1.11585        -0.001973     -0.026644     -0.006675
     -0.00003      1.52422      3.55048         0.053409      0.027673      0.037964
      2.63081      3.05371      5.97635        -0.000162      0.000092     -0.018639
      2.64113     -0.00209      8.38081        -0.000841      0.017579     -0.003750
      5.27998      0.00001      1.11585         0.011914      0.006953     -0.008759
      7.91997      1.52422      3.55048         0.000481      0.000273     -0.017423
      5.27948      3.04997      5.93966         0.007263      0.012146     -0.008790
      5.28086      0.00046      8.39229        -0.026726     -0.015717      0.008064
      3.95998      2.28632      1.11585        -0.015885      0.009172      0.012010
      6.59997      3.81053      3.55048         0.000018      0.014742     -0.021146
      6.60003      0.76208      5.95698         0.000212     -0.000084      0.008175
      3.96951      2.28082      8.34019        -0.006830      0.004060     -0.027503
      6.59998      2.28632      1.11585        -0.000069     -0.013805     -0.008764
      3.95997      3.81053      3.55048        -0.050714      0.032436      0.037901
      9.24169      0.76176      5.93968         0.006562     -0.012227     -0.009244
      6.60004      2.28534      8.39231        -0.000131      0.030935      0.007954
      7.91998      0.00001      1.11585        -0.012046      0.006956     -0.008774
      5.27997      1.52422      3.55048        -0.000452      0.000274     -0.017523
      7.92058      3.04996      5.93968        -0.007205      0.011830     -0.009200
      7.91922      0.00045      8.39229         0.026960     -0.015502      0.008107
      7.91998      4.57263      1.11585        -0.022201      0.015034     -0.006637
     -0.00003      6.09683      3.55048        -0.002770     -0.060110      0.038037
     -2.64092      7.62045      5.94711         0.013059      0.007517      0.002085
     -2.64230      4.57270      8.38079         0.015965     -0.008172     -0.003704
      6.59998      6.85894      1.11585        -0.000077      0.000034     -0.047798
     -1.32003      8.38314      3.55048        -0.012747     -0.007371     -0.021186
     -1.30831      5.32796      5.96838         0.010427     -0.005943      0.002030
     -3.95997      6.85890      8.36888         0.000313     -0.000078     -0.022729
     -1.32002      6.85894      1.11585        -0.024109      0.011715     -0.006645
     -3.96003      8.38314      3.55048        -0.000038      0.008304     -0.031163
      1.32002      5.32405      5.97634         0.000130     -0.000230     -0.018570
     -1.32121      6.86086      8.38079         0.014990     -0.009560     -0.003723
     -0.00002      4.57263      1.11585         0.011064     -0.006393     -0.051059
     -2.64003      6.09683      3.55048         0.007146     -0.004144     -0.031221
     -0.00106      7.61974      5.93968        -0.013886      0.000322     -0.009167
     -0.02301      4.58591      8.50412        -0.002411      0.001336      0.036327
      2.63998      4.57263      1.11585        -0.011173     -0.006387     -0.050965
      5.27997      6.09683      3.55048        -0.007201     -0.004125     -0.031125
      2.64113      7.61972      5.93968         0.013948      0.000477     -0.009149
      2.66308      4.58589      8.50395         0.002307      0.001642      0.036125
      1.31998      6.85894      1.11585        -0.000065     -0.018251      0.012006
      3.95997      8.38314      3.55048         0.012755     -0.007351     -0.021056
      3.94839      5.32798      5.96836        -0.010319     -0.006082      0.002040
      1.32005      6.86982      8.34020         0.000037     -0.007925     -0.027521
      3.95998      6.85894      1.11585         0.024029      0.011726     -0.006693
      1.31997      8.38314      3.55048        -0.000001     -0.000547     -0.017410
      6.60004      5.33579      5.94712         0.000012     -0.014996      0.002051
      3.96130      6.86088      8.38085        -0.014933     -0.009957     -0.003666
      5.27998      4.57263      1.11585         0.022106      0.015035     -0.006699
      2.63997      6.09683      3.55048         0.002725     -0.060079      0.037881
      5.28100      7.62045      5.94714        -0.012948      0.007461      0.002005
      5.28238      4.57269      8.38084        -0.015909     -0.008136     -0.003723
      1.31971      3.81045      9.52221         0.000216      0.000034      0.034938
    total drift:                               -0.000606      0.000226      0.009188

  FREE ENERGIE OF THE ION-ELECTRON SYSTEM (eV)
  free  energy   TOTEN  =      -408.86677299 eV

  energy  without entropy=     -408.83231037  energy(sigma->0) =     -408.85528545

 d Force = 0.1648082E-02[ 0.749E-03, 0.255E-02]  d Energy = 0.1643703E-02 0.438E-05
 d Force =-0.6837776E+01[-0.682E+01,-0.685E+01]  d Ewald  =-0.6837784E+01 0.739E-05

 Conjugate gradient step on ions:
 trial-energy change:   -0.001644  1 .order   -0.001648   -0.002547   -0.000749
  (g-gl).g = 0.162E-02      g.g   = 0.175E-02  gl.gl    = 0.740E-02
 g(Force)  = 0.175E-02   g(Stress)= 0.000E+00 ortho     = 0.305E-03
 gamma     =   0.21951
 trial     =   1.39921
 opt step  =   1.98251  (harmonic =   1.98251) maximal distance =0.00456070
 next E    =  -408.866934   (d E  =  -0.00180)

 reached required accuracy - stopping structural energy minimisation