 vasp.5.4.4.18Apr17-6-g9f103f2a35 (build Nov 30 2020 22:55:02) complex

 executed on             LinuxIFC date 2023.09.10  15:36:21

 INCAR:
 POTCAR:    PAW_PBE Cu 22Jun2005
 POTCAR:    PAW_PBE Pt 04Feb2005
 POTCAR:    PAW_PBE H 15Jun2001
 POTCAR:    PAW_PBE Cu 22Jun2005
   VRHFIN =Cu: d10 p1

   TITEL  = PAW_PBE Cu 22Jun2005
   POMASS =   63.546; ZVAL   =   11.000    mass and valenz
   ENMAX  =  295.446; ENMIN  =  221.585 eV

 POTCAR:    PAW_PBE Pt 04Feb2005
   VRHFIN =Pt: s1d9

   TITEL  = PAW_PBE Pt 04Feb2005
   POMASS =  195.080; ZVAL   =   10.000    mass and valenz
   ENMAX  =  230.283; ENMIN  =  172.712 eV

 POTCAR:    PAW_PBE H 15Jun2001
   VRHFIN =H: ultrasoft test

   TITEL  = PAW_PBE H 15Jun2001
   POMASS =    1.000; ZVAL   =    1.000    mass and valenz
   ENMAX  =  250.000; ENMIN  =  200.000 eV

 Optimization of the real space projectors (new method)

 maximal supplied QI-value         = 16.25
 optimisation between [QCUT,QGAM] = [ 11.86, 23.89] = [ 39.41,159.82] Ry
 Optimized for a Real-space Cutoff    1.49 Angstroem

   l    n(q)    QCUT    max X(q) W(low)/X(q) W(high)/X(q)  e(spline)
   2     10    11.864     4.610    0.10E-03    0.20E-03    0.29E-06
   2     10    11.864     8.522    0.17E-03    0.33E-03    0.50E-06
   0     11    11.864    51.609    0.52E-04    0.55E-04    0.33E-06
   0     11    11.864    27.747    0.46E-04    0.52E-04    0.31E-06
   1     10    11.864    20.408    0.54E-04    0.25E-04    0.21E-06
   1     10    11.864    13.425    0.48E-04    0.22E-04    0.18E-06
 Optimization of the real space projectors (new method)

[...]

   l    n(q)    QCUT    max X(q) W(low)/X(q) W(high)/X(q)  e(spline)
   2     10    11.920    66.195    0.79E-04    0.18E-03    0.24E-06
   2     10    11.920    64.643    0.81E-04    0.19E-03    0.24E-06
   0     11    11.920    95.520    0.28E-04    0.54E-04    0.18E-06
   0     11    11.920    63.403    0.27E-04    0.52E-04    0.17E-06
   1     10    11.920    19.961    0.18E-04    0.11E-03    0.23E-06
   1     10    11.920    13.289    0.25E-04    0.87E-04    0.19E-06
 Optimization of the real space projectors (new method)

 maximal supplied QI-value         = 34.20
 optimisation between [QCUT,QGAM] = [ 11.97, 23.94] = [ 40.13,160.53] Ry
 Optimized for a Real-space Cutoff    1.18 Angstroem

   l    n(q)    QCUT    max X(q) W(low)/X(q) W(high)/X(q)  e(spline)
   0      8    11.971    19.460    0.15E-03    0.31E-03    0.25E-06
   0      8    11.971    12.209    0.13E-03    0.29E-03    0.25E-06
   1      8    11.971     4.655    0.22E-03    0.24E-03    0.21E-06
  PAW_PBE Cu 22Jun2005                  :
  PAW_PBE Pt 04Feb2005                  :
  PAW_PBE H 15Jun2001                   :

 POSCAR: PtM\(2)
  positions in direct lattice
  velocities in cartesian coordinates
 exchange correlation table for  LEXCH =        8
   RHO(1)=    0.500       N(1)  =     2000
   RHO(2)=  100.500       N(2)  =     4000

 ion  position               nearest neighbor table
   1  0.785  0.869  0.314-  55 2.49  20 2.49  39 2.50  57 2.64   2 2.64  40 2.64   3 2.64  56 2.64
                            29 2.64  73 2.66  65 2.66  72 2.67
   2  0.035  0.870  0.314-  49 2.49  52 2.49  39 2.49  56 2.64  33 2.64   1 2.64  23 2.64   3 2.64
                            77 2.64  41 2.65  67 2.66  65 2.67
   3  0.035  0.619  0.314-  39 2.49  60 2.49  12 2.49   9 2.63  40 2.64  15 2.64   1 2.64   2 2.64
                            77 2.65  41 2.65  66 2.66  73 2.67
   4  0.786  0.868  0.045-  21 2.50  62 2.50  19 2.51  30 2.64  59 2.64  58 2.64  42 2.64   6 2.64
                             5 2.64
   5  0.036  0.868  0.045-  54 2.50  35 2.50  62 2.51  43 2.64   6 2.64  34 2.64  24 2.64  58 2.64
                             4 2.64
   6  0.036  0.618  0.045-  32 2.50  54 2.50  21 2.51   5 2.64  10 2.64  43 2.64   4 2.64  42 2.64
                            18 2.64
   7  0.619  0.202  0.135-  55 2.49  63 2.50  64 2.50  28 2.50  30 2.50  58 2.51  45 2.64  22 2.64
                            37 2.64  11 2.64  19 2.64  62 2.64
   8  0.369  0.952  0.135-  53 2.49  26 2.49  50 2.50  16 2.50  24 2.50  59 2.51  19 2.64  35 2.64
                            44 2.64  37 2.64  25 2.64  38 2.64
   9  0.035  0.370  0.314-  12 2.49  61 2.49  46 2.49   3 2.63  40 2.64  13 2.64  33 2.64  47 2.64
                            15 2.65  71 2.65  66 2.66  68 2.66
  10  0.036  0.368  0.045-  38 2.50  32 2.50  31 2.51  16 2.64   6 2.64  34 2.64  18 2.64  42 2.64
                            48 2.64
  11  0.869  0.202  0.135-  49 2.49  61 2.49  48 2.50  63 2.50  58 2.50  34 2.51  31 2.64  38 2.64
                            22 2.64  62 2.64   7 2.64  35 2.64
  12  0.952  0.535  0.225-   9 2.49  31 2.49   3 2.49  21 2.49  40 2.49  32 2.49  61 2.64  46 2.64
                            39 2.64  20 2.64  60 2.65  51 2.65
  13  0.285  0.119  0.314-  46 2.49  53 2.49  26 2.49  29 2.64  57 2.64  23 2.64  15 2.64   9 2.64
                            33 2.65  69 2.65  71 2.66  74 2.66
  14  0.534  0.619  0.316-  36 2.50  50 2.51  51 2.51  27 2.62  41 2.62  47 2.64  23 2.64  80 2.65
                            40 2.65  57 2.65  76 2.69  75 2.69
  15  0.285  0.370  0.315-  60 2.49  64 2.50  46 2.50  27 2.63  41 2.64   3 2.64  29 2.64  13 2.64
                             9 2.65  74 2.65  66 2.66  79 2.67
  16  0.286  0.118  0.045-   8 2.50  37 2.50  38 2.51  24 2.64  10 2.64  34 2.64  59 2.64  18 2.64
                            30 2.64
  17  0.536  0.618  0.045-  22 2.50  25 2.50  44 2.51  42 2.64  48 2.64  59 2.64  28 2.64  24 2.64
                            43 2.64
  18  0.286  0.368  0.045-  37 2.50  45 2.50  32 2.51  28 2.64  30 2.64  43 2.64  10 2.64  16 2.64
                             6 2.64
  19  0.619  0.952  0.135-  20 2.49  55 2.49  53 2.49  30 2.50  59 2.50   4 2.51  25 2.64   8 2.64
                            37 2.64  21 2.64   7 2.64  62 2.64
  20  0.702  0.785  0.225-  40 2.49  25 2.49  19 2.49  57 2.49   1 2.49  21 2.49  12 2.64  55 2.64
                            39 2.64  51 2.64  53 2.64  50 2.64
  21  0.869  0.702  0.135-  12 2.49  39 2.49  20 2.49   4 2.50  42 2.50   6 2.51  32 2.64  31 2.64
                            25 2.64  62 2.64  54 2.64  19 2.64
  22  0.619  0.452  0.135-  51 2.49  63 2.49  17 2.50  28 2.50  36 2.51  48 2.51  44 2.64  45 2.64
                             7 2.64  25 2.64  11 2.64  31 2.64
  23  0.285  0.869  0.315-  52 2.49  50 2.49  26 2.49  41 2.64  14 2.64  57 2.64   2 2.64  33 2.64
                            13 2.64  69 2.66  67 2.66  75 2.67
  24  0.286  0.868  0.045-  44 2.50   8 2.50  35 2.51  59 2.64  16 2.64  17 2.64  43 2.64   5 2.64
                            34 2.64
  25  0.619  0.702  0.135-  20 2.49  51 2.50  50 2.50  59 2.50  17 2.50  42 2.51  19 2.64  44 2.64
                             8 2.64  22 2.64  21 2.64  31 2.64
  26  0.202  0.036  0.225-  38 2.49  13 2.49  35 2.49  33 2.49   8 2.49  23 2.49  53 2.64  49 2.64
                            52 2.64  50 2.64  46 2.65  61 2.65
  27  0.534  0.370  0.316-  36 2.50  64 2.51  63 2.51  14 2.62  41 2.62  15 2.63  47 2.64  78 2.64
                            56 2.65  29 2.65  76 2.69  79 2.69
  28  0.536  0.368  0.045-   7 2.50  22 2.50  45 2.51  48 2.64  18 2.64  43 2.64  17 2.64  58 2.64
                            30 2.64
  29  0.535  0.119  0.314-  64 2.48  53 2.49  55 2.49  57 2.64  13 2.64   1 2.64  56 2.64  15 2.64
                            78 2.65  27 2.65  72 2.66  74 2.67
  30  0.536  0.118  0.045-  19 2.50   7 2.50  37 2.51   4 2.64  18 2.64  58 2.64  59 2.64  16 2.64
                            28 2.64
  31  0.869  0.452  0.135-  12 2.49  61 2.49  42 2.50  48 2.50  51 2.50  10 2.51  38 2.64  11 2.64
                            21 2.64  32 2.64  22 2.64  25 2.64
  32  0.119  0.452  0.135-  46 2.49  12 2.49  60 2.50   6 2.50  10 2.50  18 2.51  54 2.64  45 2.64
                            21 2.64  37 2.64  38 2.64  31 2.64
  33  0.035  0.119  0.314-  61 2.49  49 2.49  26 2.49  56 2.64   2 2.64  23 2.64  47 2.64   9 2.64
                            13 2.65  71 2.65  67 2.65  70 2.66
  34  0.036  0.118  0.045-  35 2.50  38 2.50  11 2.51  58 2.64  16 2.64   5 2.64  10 2.64  24 2.64
                            48 2.64
  35  0.119  0.952  0.135-  49 2.49  26 2.49  52 2.50  34 2.50   5 2.50  24 2.51   8 2.64  44 2.64
                            62 2.64  54 2.64  11 2.64  38 2.64
  36  0.452  0.536  0.226-  27 2.50  14 2.50  41 2.50  44 2.50  45 2.50  22 2.51  51 2.63  60 2.63
                            63 2.63  64 2.63  50 2.63  52 2.63
  37  0.369  0.202  0.135-  53 2.49  46 2.49  64 2.50  18 2.50  16 2.50  30 2.51  38 2.64  32 2.64
                             7 2.64   8 2.64  19 2.64  45 2.64
  38  0.119  0.202  0.135-  26 2.49  46 2.50  61 2.50  10 2.50  34 2.50  16 2.51  31 2.64  37 2.64
                            32 2.64  11 2.64   8 2.64  35 2.64
  39  0.952  0.785  0.225-   3 2.49   2 2.49  62 2.49  21 2.49  54 2.49   1 2.50  12 2.64  20 2.64
                            55 2.64  60 2.64  49 2.64  52 2.64
  40  0.785  0.619  0.314-  51 2.49  20 2.49  12 2.49   9 2.64   3 2.64  47 2.64   1 2.64  57 2.64
                            14 2.65  80 2.65  68 2.66  73 2.66
  41  0.286  0.619  0.316-  36 2.50  52 2.51  60 2.51  14 2.62  27 2.62  15 2.64  23 2.64   3 2.65
                             2 2.65  77 2.65  79 2.69  75 2.69
  42  0.786  0.618  0.045-  31 2.50  21 2.50  25 2.51  17 2.64  59 2.64  48 2.64   4 2.64   6 2.64
                            10 2.64
  43  0.286  0.618  0.045-  45 2.50  44 2.50  54 2.51  28 2.64   5 2.64  18 2.64  17 2.64  24 2.64
                             6 2.64
  44  0.369  0.702  0.135-  50 2.49  52 2.50  24 2.50  43 2.50  36 2.50  17 2.51  22 2.64  25 2.64
                            35 2.64   8 2.64  54 2.64  45 2.64
  45  0.369  0.452  0.135-  64 2.49  60 2.50  43 2.50  18 2.50  36 2.50  28 2.51  54 2.64  32 2.64
                             7 2.64  22 2.64  37 2.64  44 2.64
  46  0.202  0.286  0.225-  13 2.49  32 2.49   9 2.49  37 2.49  38 2.50  15 2.50  12 2.64  60 2.64
                            53 2.64  64 2.64  26 2.65  61 2.65
  47  0.784  0.370  0.315-  51 2.49  63 2.49  61 2.50  27 2.64  14 2.64  40 2.64  33 2.64  56 2.64
                             9 2.64  70 2.65  68 2.66  76 2.68
  48  0.786  0.368  0.045-  11 2.50  31 2.50  22 2.51  28 2.64  17 2.64  42 2.64  58 2.64  34 2.64
                            10 2.64
  49  0.952  0.036  0.225-   2 2.49  11 2.49  33 2.49  62 2.49  56 2.49  35 2.49  26 2.64  61 2.64
                            55 2.64  39 2.64  52 2.65  63 2.65
  50  0.452  0.785  0.225-  57 2.48  23 2.49  44 2.49   8 2.50  25 2.50  14 2.51  52 2.63  51 2.63
                            36 2.63  26 2.64  20 2.64  53 2.65
  51  0.701  0.536  0.225-  40 2.49  47 2.49  22 2.49  25 2.50  31 2.50  14 2.51  36 2.63  50 2.63
                            63 2.63  61 2.64  20 2.64  12 2.65
  52  0.203  0.785  0.225-   2 2.49  23 2.49  44 2.50  54 2.50  35 2.50  41 2.51  50 2.63  60 2.63
                            36 2.63  26 2.64  39 2.64  49 2.65
  53  0.452  0.036  0.225-  57 2.49  37 2.49   8 2.49  29 2.49  13 2.49  19 2.49  26 2.64  46 2.64
                            55 2.64  20 2.64  50 2.65  64 2.65
[...]
   -.304E+01 0.113E+01 -.212E+04   0.308E+01 -.107E+01 0.212E+04   -.390E-01 -.609E-01 0.194E+01   0.321E-03 0.707E-02 0.813E-02
   0.302E-01 0.134E+00 0.390E+04   -.458E-01 -.127E+00 -.390E+04   0.592E-02 -.828E-02 -.304E+01   0.213E-02 0.126E-02 -.164E-02
   -.414E+00 0.200E+00 0.390E+04   0.418E+00 -.182E+00 -.390E+04   -.251E-02 -.163E-01 -.308E+01   -.119E-02 -.261E-03 -.753E-03
   -.333E+00 0.985E-01 0.390E+04   0.297E+00 -.769E-01 -.390E+04   0.265E-01 -.212E-01 -.314E+01   0.170E-02 0.129E-02 -.143E-02
   -.654E+00 -.359E+01 0.190E+04   0.668E+00 0.362E+01 -.190E+04   -.456E-02 -.108E-01 -.123E+01   0.613E-03 -.368E-03 0.183E-02
   0.143E+01 0.481E+01 0.190E+04   -.142E+01 -.483E+01 -.190E+04   -.187E-01 -.139E-01 -.127E+01   -.836E-03 0.513E-03 0.109E-02
   0.203E+01 0.108E+01 -.213E+04   -.206E+01 -.104E+01 0.213E+04   0.277E-01 -.410E-01 0.197E+01   0.132E-02 -.107E-02 0.949E-02
   0.545E+00 -.214E+00 0.390E+04   -.569E+00 0.239E+00 -.390E+04   0.127E-01 -.164E-01 -.318E+01   0.117E-02 0.266E-03 -.278E-02
   0.114E+01 -.288E+01 0.190E+04   -.118E+01 0.291E+01 -.190E+04   0.282E-01 -.173E-01 -.132E+01   -.276E-02 -.253E-02 0.246E-02
   0.231E+01 -.686E+00 -.114E+03   -.232E+01 0.667E+00 0.114E+03   0.193E-01 0.159E-01 -.261E+00   0.122E-02 0.220E-02 0.888E-02
   0.187E+01 0.123E+01 -.213E+04   -.184E+01 -.130E+01 0.213E+04   -.297E-01 0.629E-01 0.197E+01   -.457E-03 0.207E-02 0.945E-02
   -.203E+00 -.342E+00 -.220E+04   0.707E-01 0.257E+00 0.220E+04   0.146E+00 0.920E-01 0.217E+01   -.599E-02 -.256E-02 0.207E-02
   -.718E+01 -.420E+01 -.213E+04   0.738E+01 0.430E+01 0.213E+04   -.187E+00 -.973E-01 0.194E+01   0.508E-02 0.322E-02 0.680E-02
   0.217E+00 0.559E-01 0.390E+04   -.212E+00 -.773E-01 -.390E+04   -.622E-02 0.169E-01 -.317E+01   0.857E-03 0.705E-03 -.273E-02
   0.624E+00 0.192E+00 0.390E+04   -.654E+00 -.211E+00 -.389E+04   0.209E-01 0.194E-01 -.295E+01   -.183E-02 -.906E-03 -.239E-02
   -.370E+00 -.547E+00 0.390E+04   0.369E+00 0.549E+00 -.390E+04   -.705E-03 0.431E-02 -.309E+01   0.135E-02 0.739E-03 -.146E-02
   0.883E+00 0.762E+00 0.191E+04   -.855E+00 -.801E+00 -.191E+04   -.198E-01 0.274E-01 -.129E+01   0.326E-02 0.195E-02 0.985E-03
   0.371E+01 0.217E+01 -.119E+03   -.376E+01 -.221E+01 0.119E+03   0.487E-01 0.370E-01 -.297E+00   0.345E-02 0.192E-02 0.935E-02
   0.117E+01 0.504E+00 0.191E+04   -.118E+01 -.454E+00 -.191E+04   0.120E-01 -.379E-01 -.128E+01   0.337E-02 0.199E-02 0.994E-03
   0.161E+01 -.256E+01 0.190E+04   -.162E+01 0.263E+01 -.190E+04   0.551E-02 -.454E-01 -.117E+01   -.278E-02 -.244E-02 0.143E-02
   -.280E+01 0.497E+01 -.215E+04   0.284E+01 -.519E+01 0.215E+04   -.334E-01 0.203E+00 0.202E+01   -.787E-02 0.507E-02 0.553E-02
   0.259E+00 0.714E+00 0.390E+04   -.240E+00 -.717E+00 -.389E+04   -.246E-01 0.278E-02 -.306E+01   -.226E-02 -.554E-03 -.222E-02
   0.361E+01 0.225E+01 0.190E+04   -.366E+01 -.227E+01 -.190E+04   0.247E-01 0.514E-02 -.117E+01   0.420E-04 0.207E-03 0.560E-03
   0.281E-02 0.354E+01 -.124E+03   0.634E-02 -.356E+01 0.124E+03   -.139E-01 0.994E-02 -.203E+00   -.194E-02 0.255E-02 0.776E-02
   0.726E+00 -.609E+01 -.217E+04   -.667E+00 0.624E+01 0.217E+04   -.604E-01 -.129E+00 0.203E+01   0.106E-02 -.291E-02 0.932E-02
   -.748E-01 -.782E+00 0.390E+04   0.103E+00 0.822E+00 -.389E+04   -.316E-01 -.325E-01 -.298E+01   -.864E-03 -.115E-02 -.980E-03
   -.414E+00 -.318E+01 -.212E+04   0.491E+00 0.317E+01 0.212E+04   -.840E-01 0.183E-01 0.194E+01   0.582E-02 -.321E-02 0.817E-02
   0.518E-01 -.702E+00 0.390E+04   -.594E-01 0.677E+00 -.390E+04   -.249E-02 0.254E-01 -.314E+01   0.183E-02 0.745E-03 -.143E-02
   0.488E+01 -.127E+01 0.190E+04   -.489E+01 0.130E+01 -.190E+04   -.221E-01 -.873E-02 -.127E+01   0.922E-04 -.973E-03 0.107E-02
   -.286E+01 -.136E+01 0.190E+04   0.288E+01 0.136E+01 -.190E+04   0.631E-02 0.137E-01 -.130E+01   0.287E-02 0.159E-02 0.110E-02
   -.248E+01 -.158E+01 -.213E+04   0.241E+01 0.153E+01 0.213E+04   0.632E-01 0.513E-01 0.199E+01   -.258E-02 -.116E-02 0.123E-01
   0.199E+00 -.136E+00 0.390E+04   -.202E+00 0.147E+00 -.390E+04   -.322E-02 -.878E-02 -.316E+01   -.190E-02 -.125E-02 -.196E-02
   -.193E+01 0.246E+01 0.190E+04   0.193E+01 -.251E+01 -.190E+04   -.509E-03 0.312E-01 -.131E+01   -.340E-02 -.128E-02 0.250E-02
   -.177E+01 -.119E+01 -.144E+03   0.173E+01 0.115E+01 0.144E+03   0.384E-01 0.323E-01 -.264E+00   -.310E-02 -.170E-02 0.975E-02
   -.264E+01 -.184E+01 0.191E+04   0.263E+01 0.186E+01 -.190E+04   0.240E-01 0.118E-02 -.130E+01   0.278E-02 0.154E-02 0.111E-02
   0.221E+01 0.135E+01 0.190E+04   -.217E+01 -.133E+01 -.190E+04   -.594E-01 -.298E-01 -.132E+01   -.791E-03 -.665E-03 0.160E-02
   -.148E+01 0.113E+01 -.116E+03   0.150E+01 -.119E+01 0.116E+03   -.246E-01 0.640E-01 -.272E+00   0.197E-02 0.233E-02 0.861E-02
   0.895E+01 -.113E+01 -.213E+04   -.906E+01 0.121E+01 0.213E+04   0.936E-01 -.652E-01 0.195E+01   0.855E-03 0.203E-02 0.686E-02
   -.489E+01 0.359E+01 -.217E+04   0.506E+01 -.362E+01 0.217E+04   -.153E+00 0.219E-01 0.203E+01   -.229E-02 0.363E-02 0.917E-02
   0.800E+00 0.309E+00 0.390E+04   -.794E+00 -.314E+00 -.390E+04   -.916E-02 0.256E-02 -.303E+01   0.153E-02 0.788E-03 -.308E-02
   -.593E+00 0.802E-01 0.390E+04   0.634E+00 -.636E-01 -.389E+04   -.398E-01 -.152E-01 -.298E+01   -.140E-02 -.415E-04 -.932E-03
   -.128E+01 0.277E+01 0.190E+04   0.133E+01 -.281E+01 -.190E+04   -.378E-01 0.185E-01 -.117E+01   -.356E-02 -.950E-03 0.147E-02
   -.436E+01 -.252E+01 0.190E+04   0.439E+01 0.255E+01 -.190E+04   0.278E-02 -.335E-02 -.119E+01   0.587E-04 0.105E-03 0.159E-02
   -.169E+01 -.964E+00 -.113E+03   0.167E+01 0.942E+00 0.113E+03   0.124E-01 0.166E-01 -.150E+00   0.499E-02 0.308E-02 0.639E-02
   0.262E+01 -.465E+01 -.215E+04   -.278E+01 0.478E+01 0.215E+04   0.153E+00 -.112E+00 0.202E+01   -.842E-03 -.850E-02 0.557E-02
   0.470E+00 -.486E+00 0.390E+04   -.480E+00 0.516E+00 -.389E+04   0.566E-02 -.258E-01 -.307E+01   -.165E-02 -.170E-02 -.234E-02
   -.440E+00 -.201E+00 -.114E+03   0.475E+00 0.210E+00 0.114E+03   -.369E-01 -.100E-01 -.284E+00   -.391E-02 -.234E-02 0.947E-02
   0.222E+00 0.456E+01 -.137E+03   -.235E+00 -.455E+01 0.137E+03   0.192E-01 -.479E-02 -.236E+00   -.214E-02 -.416E-03 0.785E-02
   0.408E+01 -.226E+01 -.137E+03   -.406E+01 0.223E+01 0.137E+03   -.283E-02 0.317E-01 -.238E+00   -.176E-02 -.131E-02 0.785E-02
   -.260E+01 0.414E+01 -.128E+03   0.265E+01 -.413E+01 0.128E+03   -.489E-01 -.151E-02 -.327E+00   -.338E-02 -.778E-03 0.103E-01
   0.624E+00 0.243E+01 -.113E+03   -.638E+00 -.245E+01 0.114E+03   0.155E-01 0.247E-01 -.260E+00   0.232E-02 -.165E-03 0.885E-02
   -.352E+01 0.128E+01 0.190E+04   0.355E+01 -.127E+01 -.190E+04   -.119E-01 -.308E-02 -.123E+01   0.114E-03 0.816E-03 0.185E-02
   0.220E+00 -.172E+01 -.115E+03   -.256E+00 0.176E+01 0.116E+03   0.352E-01 -.379E-01 -.272E+00   0.312E-02 -.943E-04 0.885E-02
   0.161E+01 -.351E+01 -.213E+04   -.161E+01 0.350E+01 0.213E+04   0.180E-02 0.233E-01 0.198E+01   0.963E-03 -.583E-02 0.160E-01
   0.362E+01 0.846E+01 -.213E+04   -.360E+01 -.860E+01 0.213E+04   -.196E-01 0.124E+00 0.195E+01   0.167E-02 0.466E-03 0.688E-02
   0.410E-01 -.760E+00 0.390E+04   -.329E-01 0.769E+00 -.390E+04   -.112E-01 -.842E-04 -.308E+01   -.842E-03 -.103E-02 -.816E-03
   0.656E+00 0.517E+00 0.390E+04   -.663E+00 -.490E+00 -.390E+04   0.680E-03 -.201E-01 -.302E+01   0.131E-02 0.105E-02 -.302E-02
   -.491E+01 -.116E+01 -.126E+03   0.489E+01 0.118E+01 0.126E+03   0.201E-01 -.254E-01 -.223E+00   -.121E-03 0.155E-02 0.825E-02
[...]
   -.276E+01 -.160E+01 -.348E+04   0.265E+01 0.197E+01 0.348E+04   0.107E+00 -.380E+00 0.164E+01   -.647E-02 0.583E-02 0.929E-02
   -.375E+01 0.775E+01 -.349E+04   0.376E+01 -.766E+01 0.349E+04   -.106E-01 -.935E-01 0.151E+01   -.743E-02 -.650E-02 -.110E-02
   -.437E+01 -.232E+01 -.349E+04   0.435E+01 0.230E+01 0.349E+04   0.576E-01 0.301E-01 0.147E+01   -.114E-01 -.531E-02 0.745E-02
   -.705E+01 0.121E+01 -.349E+04   0.695E+01 -.113E+01 0.349E+04   0.100E+00 -.976E-01 0.151E+01   0.989E-02 -.910E-02 0.127E-01
   -.253E+01 -.667E+01 -.349E+04   0.255E+01 0.654E+01 0.349E+04   -.296E-01 0.129E+00 0.151E+01   -.419E-02 0.154E-01 0.123E-01
   0.524E+01 0.269E+00 -.349E+04   -.519E+01 -.261E+00 0.349E+04   -.517E-01 -.166E-02 0.152E+01   -.381E-02 0.428E-03 0.132E-01
   0.836E+01 -.123E+02 -.349E+04   -.929E+01 0.139E+02 0.349E+04   0.937E+00 -.165E+01 0.153E+01   -.183E-01 -.185E-02 -.150E-01
   -.593E+01 0.132E+02 -.349E+04   0.691E+01 -.148E+02 0.349E+04   -.998E+00 0.165E+01 0.158E+01   -.128E-01 -.129E-01 -.123E-01
   0.240E+01 0.124E+01 -.348E+04   -.271E+01 -.980E+00 0.348E+04   0.350E+00 -.274E+00 0.159E+01   0.735E-02 0.110E-01 0.815E-02
   0.210E+01 0.185E+01 -.348E+04   -.203E+01 -.224E+01 0.348E+04   -.548E-01 0.424E+00 0.159E+01   0.111E-01 0.368E-02 0.807E-02
   0.117E+02 0.686E+01 -.347E+04   -.121E+02 -.708E+01 0.347E+04   0.413E+00 0.238E+00 0.350E+00   0.138E-01 0.981E-02 0.761E-02
   -.132E+02 -.763E+01 -.346E+04   0.136E+02 0.785E+01 0.346E+04   -.404E+00 -.234E+00 0.321E+00   0.713E-02 0.684E-02 -.261E-02
   -.101E+01 -.397E+00 -.397E+03   0.150E+01 0.665E+00 0.399E+03   -.486E+00 -.262E+00 -.174E+01   -.596E-03 -.356E-03 -.631E-03
   0.852E+00 0.558E+00 -.398E+03   -.135E+01 -.852E+00 0.399E+03   0.490E+00 0.287E+00 -.174E+01   -.982E-04 -.322E-04 0.472E-03
   0.239E+00 -.912E-01 0.224E+02   -.890E-12 -.572E-12 0.676E-11   -.213E+00 0.806E-01 -.227E+02   -.185E-01 0.194E-01 0.362E+00

 POSITION                                       TOTAL-FORCE (eV/Angst)
     12.87955      7.95043      6.91006         0.001878     -0.000262     -0.015099
      4.96053      7.95446      6.90739         0.002949     -0.002534     -0.004476
      3.64296      5.66474      6.90231         0.000084     -0.002219     -0.018881
     12.88772      7.94133      0.98786        -0.007897     -0.000744      0.029713
      4.96828      7.94090      0.98788        -0.000741      0.001755      0.020526
      3.64811      5.65491      0.98789        -0.008711      0.001874      0.015939
      7.60345      1.84766      2.97612         0.010131      0.013128     -0.018250
      8.92360      8.70642      2.97615        -0.004479     -0.036670     -0.016207
      2.31733      3.37609      6.90661         0.004679     -0.005789     -0.006660
      2.32840      3.36855      0.98789        -0.010648      0.008691      0.026330
     10.24366      1.84749      2.97631        -0.014616      0.009955     -0.035386
     12.88165      4.89724      4.93941         0.005263     -0.001485      0.002176
      3.63684      1.09058      6.90603        -0.000582      0.004494     -0.005805
      8.91584      5.66208      6.98127         0.003009      0.000678      0.027419
      4.94884      3.37150      6.90782         0.011760      0.005383      0.009328
      3.64790      1.08225      0.98791        -0.001661     -0.003596      0.026438
      8.92836      5.65491      0.98749        -0.010781     -0.000620      0.009847
      4.96868      3.36845      0.98773        -0.000781      0.006367      0.029128
     11.56329      8.70620      2.97600         0.011078     -0.008856     -0.045439
     11.55852      7.18391      4.94369         0.001687      0.000724      0.015786
     12.88367      6.41974      2.97616        -0.002417      0.012759     -0.045654
      8.92348      4.13384      2.97614        -0.013553      0.019900      0.012153
      7.59847      7.93557      6.93405         0.002722     -0.012848      0.003967
      7.60853      7.94123      0.98754        -0.008036     -0.000335      0.025991
     10.24361      6.42012      2.97615        -0.018408     -0.011302      0.006977
      2.32094      0.31932      4.94875        -0.006317      0.001617     -0.005155
      7.60410      3.38882      6.94570        -0.001382      0.013668      0.025148
      7.60822      3.36882      0.98754        -0.004153      0.006625      0.016438
      6.28214      1.09390      6.90238        -0.001229     -0.000616     -0.020238
      6.28821      1.08205      0.98764        -0.008543      0.001317      0.016011
     11.56394      4.13343      2.97611        -0.033405      0.014422     -0.018095
      3.64388      4.13378      2.97638         0.029067      0.010096     -0.042241
      0.99418      1.08820      6.91195        -0.002573     -0.001580     -0.004739
      1.00799      1.08229      0.98797        -0.008269      0.001125      0.012494
      6.28378      8.70616      2.97613         0.001827     -0.019330     -0.033211
      7.60840      4.90329      4.96944        -0.006036     -0.003776     -0.000418
      4.96354      1.84747      2.97629         0.023220      0.019877     -0.042826
      2.32374      1.84771      2.97641        -0.018241     -0.012976     -0.039338
     14.20223      7.18579      4.94149         0.000244      0.001757     -0.000092
     11.56474      5.66197      6.91031        -0.016247      0.009596     -0.006788
      6.29178      5.66271      6.94641         0.012479     -0.011076      0.024646
     11.56779      5.65497      0.98776        -0.001046     -0.001616      0.018480
      6.28834      5.65490      0.98766        -0.000899      0.001540      0.016683
      7.60388      6.42003      2.97604         0.009819     -0.022905      0.013661
      6.28360      4.13381      2.97627         0.034893      0.019759     -0.001254
      3.63763      2.61097      4.93887        -0.004315     -0.003317      0.003045
     10.22590      3.38441      6.93362        -0.007442      0.005635      0.005259
     10.24772      3.36878      0.98775        -0.006947      0.003120      0.025646
     10.24444      0.32850      4.94111        -0.003618     -0.002662     -0.004460
      8.91839      7.17509      4.96056         0.004378      0.013527      0.005998
     10.23100      4.90157      4.96030         0.014391     -0.003281      0.005575
      6.28620      7.18130      4.95347         0.000942      0.002776      0.005023
      4.95989      0.32812      4.93880         0.002302      0.004153      0.003711
      4.96387      6.41973      2.97634         0.017689      0.000804     -0.017142
      7.60208      0.32727      4.94123         0.001684     -0.001446      0.000262
      8.92312      1.09029      6.90764         0.001328      0.001838     -0.003136
     10.24040      7.95665      6.91015         0.000335     -0.022009     -0.007202
      8.92813      1.08218      0.98802        -0.004250      0.008202      0.020377
     10.24773      7.94104      0.98727        -0.005807      0.008138      0.019619
      4.97245      4.90065      4.95126        -0.006780     -0.003875     -0.005625
[...]
     11.57951      4.13305      9.07915        -0.013113     -0.022817      0.004386
      8.91807      8.74189      9.07823        -0.020501     -0.001719      0.003193
     10.24079      1.85498      9.09563        -0.006077      0.000703     -0.000341
      2.30856      1.85330      9.08252         0.023453      0.008512     -0.004425
     11.56012      8.73487      9.08034         0.004752     -0.017850     -0.001178
     12.89426      6.42430      9.08053        -0.011603      0.005598      0.000789
      4.95356      1.84535      9.08140        -0.001752      0.005920     -0.007530
      7.57438      6.47608      9.21258        -0.026852     -0.000577      0.014282
      8.94524      4.10219      9.21048        -0.014024     -0.029079      0.008307
      4.93535      6.44507      9.07545         0.040346      0.002487     -0.001297
      7.59848      1.83248      9.07642         0.027156      0.031917     -0.002403
      6.21382      4.10704      9.13259         0.032428      0.017227     -0.003953
     10.30607      6.47036      9.12615         0.015488      0.005455     -0.004237
      7.39419      4.80161     10.16279         0.002528      0.004643     -0.005772
      9.12326      5.78932     10.15667        -0.011748     -0.006484      0.026692
    total drift:                                0.007366      0.008809      0.004179

  FREE ENERGIE OF THE ION-ELECTRON SYSTEM (eV)
  free  energy   TOTEN  =      -366.00424040 eV

  energy  without entropy=     -365.95908931  energy(sigma->0) =     -365.98919004

 d Force = 0.1233981E-02[-0.229E-03, 0.270E-02]  d Energy = 0.1170872E-02 0.631E-04
 d Force =-0.2743417E+02[-0.275E+02,-0.274E+02]  d Ewald  =-0.2743416E+02-0.888E-05

 Conjugate gradient step on ions:
 trial-energy change:   -0.001171  1 .order   -0.001234   -0.002697    0.000229
  (g-gl).g = 0.169E-02      g.g   = 0.197E-02  gl.gl    = 0.230E-02
 g(Force)  = 0.197E-02   g(Stress)= 0.000E+00 ortho     =-0.257E-03
 gamma     =   0.73382
 trial     =   1.51428
 opt step  =   1.37971  (harmonic =   1.39557) maximal distance =0.00717313
 next E    =  -366.004251   (d E  =  -0.00118)

 reached required accuracy - stopping structural energy minimisation