 vasp.5.4.4.18Apr17-6-g9f103f2a35 (build Nov 30 2020 22:55:02) complex

 executed on             LinuxIFC date 2023.06.13  19:35:31

 INCAR:
 POTCAR:    PAW_PBE Pt 04Feb2005
 POTCAR:    PAW_PBE H 15Jun2001

 POTCAR:    PAW_PBE Pt 04Feb2005
   VRHFIN =Pt: s1d9

   TITEL  = PAW_PBE Pt 04Feb2005
   POMASS =  195.080; ZVAL   =   10.000    mass and valenz
   ENMAX  =  230.283; ENMIN  =  172.712 eV

 POTCAR:    PAW_PBE H 15Jun2001
   VRHFIN =H: ultrasoft test

   TITEL  = PAW_PBE H 15Jun2001
   POMASS =    1.000; ZVAL   =    1.000    mass and valenz
   ENMAX  =  250.000; ENMIN  =  200.000 eV

 Optimization of the real space projectors (new method)

 maximal supplied QI-value         = 14.36
 optimisation between [QCUT,QGAM] = [ 11.92, 23.98] = [ 39.79,161.09] Ry
 Optimized for a Real-space Cutoff    1.49 Angstroem

   l    n(q)    QCUT    max X(q) W(low)/X(q) W(high)/X(q)  e(spline)
   2     10    11.920    66.195    0.79E-04    0.18E-03    0.24E-06
   2     10    11.920    64.643    0.81E-04    0.19E-03    0.24E-06
   0     11    11.920    95.520    0.28E-04    0.54E-04    0.18E-06
   0     11    11.920    63.403    0.27E-04    0.52E-04    0.17E-06
   1     10    11.920    19.961    0.18E-04    0.11E-03    0.23E-06
   1     10    11.920    13.289    0.25E-04    0.87E-04    0.19E-06
 Optimization of the real space projectors (new method)

 maximal supplied QI-value         = 34.20
 optimisation between [QCUT,QGAM] = [ 11.97, 23.94] = [ 40.13,160.53] Ry
 Optimized for a Real-space Cutoff    1.18 Angstroem

   l    n(q)    QCUT    max X(q) W(low)/X(q) W(high)/X(q)  e(spline)
   0      8    11.971    19.460    0.15E-03    0.31E-03    0.25E-06
   0      8    11.971    12.209    0.13E-03    0.29E-03    0.25E-06
   1      8    11.971     4.655    0.22E-03    0.24E-03    0.21E-06
  PAW_PBE Pt 04Feb2005                  :
  PAW_PBE H 15Jun2001                   :

 POSCAR: Pt111
  positions in direct lattice
  velocities in cartesian coordinates
 exchange correlation table for  LEXCH =        8
   RHO(1)=    0.500       N(1)  =     2000
   RHO(2)=  100.500       N(2)  =     4000

 ion  position               nearest neighbor table
   1  0.785  0.869  0.327-  71 2.74  20 2.74  55 2.74  35 2.79  27 2.79  34 2.80  43 2.81  73 2.81
                            56 2.81  72 2.81   2 2.81   3 2.81
   2  0.035  0.869  0.327-  65 2.74  55 2.74  68 2.74  39 2.78  29 2.79  27 2.80  23 2.80  47 2.81
                            72 2.81   3 2.81   1 2.81  57 2.81
   3  0.035  0.619  0.327-  12 2.74  55 2.74  76 2.74  39 2.78  28 2.79  35 2.80  15 2.80   9 2.81
                            56 2.81   2 2.81   1 2.81  57 2.81
   4  0.786  0.868  0.023-  21 2.79  78 2.79  19 2.80  44 2.80  75 2.81  74 2.81  58 2.81   5 2.81
                             6 2.81
   5  0.036  0.868  0.023-  49 2.79  70 2.79  78 2.79  48 2.80   6 2.80  24 2.81  59 2.81   4 2.81
                            74 2.81
   6  0.036  0.618  0.023-  46 2.79  70 2.79  21 2.79  10 2.80   5 2.80  18 2.81  59 2.81   4 2.81
                            58 2.81
   7  0.619  0.202  0.126-  71 2.74  79 2.74  80 2.74  42 2.79  44 2.79  74 2.80  53 2.80  61 2.80
                            11 2.80  22 2.80  19 2.81  78 2.81
   8  0.369  0.952  0.126-  26 2.74  66 2.74  69 2.74  16 2.79  24 2.79  75 2.79  25 2.80  60 2.81
                            19 2.81  49 2.81  54 2.81  53 2.81
   9  0.035  0.369  0.327-  12 2.73  77 2.74  62 2.74  28 2.79  33 2.79  30 2.79  13 2.80   3 2.81
                            47 2.81  56 2.81  15 2.81  63 2.81
  10  0.036  0.369  0.023-  54 2.78  46 2.79  45 2.80  58 2.80   6 2.80  18 2.81  64 2.81  16 2.81
                            48 2.81
  11  0.869  0.202  0.126-  77 2.74  65 2.74  79 2.74  64 2.79  74 2.79  48 2.79   7 2.80  22 2.81
                            78 2.81  45 2.81  54 2.81  49 2.81
  12  0.952  0.536  0.226-   9 2.73   3 2.74  21 2.74  45 2.74  56 2.74  46 2.74  20 2.80  55 2.80
                            77 2.81  62 2.81  67 2.81  76 2.81
  13  0.285  0.119  0.327-  62 2.74  26 2.74  69 2.74  31 2.79  36 2.79  33 2.79   9 2.80  47 2.80
                            73 2.81  43 2.81  15 2.81  23 2.81
  14  0.535  0.619  0.328-  51 2.74  66 2.75  67 2.76  52 2.79  57 2.80  41 2.80  63 2.80  23 2.80
                            56 2.81  73 2.81  38 2.82  37 2.82
  15  0.285  0.369  0.327-  76 2.74  80 2.74  62 2.75  50 2.79  36 2.79  28 2.79  41 2.80  57 2.80
                             3 2.80  43 2.81  13 2.81   9 2.81
  16  0.287  0.118  0.023-  54 2.79   8 2.79  53 2.79  75 2.80  44 2.80  24 2.81  18 2.81  10 2.81
                            48 2.81
  17  0.536  0.618  0.023-  25 2.79  22 2.79  60 2.80  42 2.80  64 2.80  59 2.80  58 2.81  75 2.81
                            24 2.81
  18  0.286  0.368  0.023-  53 2.79  46 2.79  61 2.79  59 2.80  42 2.81   6 2.81  44 2.81  10 2.81
                            16 2.81
  19  0.619  0.952  0.126-  20 2.74  71 2.74  69 2.74  44 2.79  75 2.79   4 2.80  21 2.80  78 2.80
                             8 2.81  53 2.81  25 2.81   7 2.81
  20  0.702  0.785  0.226-  25 2.74  56 2.74  19 2.74   1 2.74  73 2.74  21 2.74  12 2.80  69 2.81
                            67 2.81  66 2.81  55 2.81  71 2.81
  21  0.869  0.702  0.126-  12 2.74  55 2.74  20 2.74  58 2.79   4 2.79   6 2.79  78 2.80  19 2.80
                            46 2.81  45 2.81  70 2.81  25 2.81
  22  0.619  0.452  0.126-  79 2.74  67 2.74  51 2.75  17 2.79  42 2.79  64 2.80  61 2.80  60 2.80
                             7 2.80  25 2.80  11 2.81  45 2.81
  23  0.285  0.869  0.327-  68 2.74  66 2.74  26 2.75  37 2.79  31 2.79  29 2.79  57 2.80  14 2.80
                             2 2.80  73 2.81  47 2.81  13 2.81
  24  0.286  0.868  0.023-   8 2.79  60 2.79  49 2.79  59 2.80   5 2.81  17 2.81  48 2.81  75 2.81
                            16 2.81
  25  0.619  0.702  0.126-  20 2.74  67 2.74  66 2.74  17 2.79  75 2.79  58 2.80   8 2.80  45 2.80
                            60 2.80  22 2.80  19 2.81  21 2.81
  26  0.202  0.036  0.226-  49 2.74  13 2.74   8 2.74  54 2.74  47 2.74  23 2.75  62 2.80  77 2.80
                            69 2.81  65 2.81  66 2.81  68 2.81
  27  0.868  0.953  0.430-  39 2.78  40 2.78   1 2.79  72 2.79   2 2.80  29 2.80  32 2.80  35 2.81
                            34 2.81
  28  0.117  0.453  0.430-  50 2.77   9 2.79  30 2.79   3 2.79  15 2.79  33 2.80  35 2.80  39 2.81
                            36 2.81
  29  0.117  0.954  0.430-  37 2.77  47 2.79  32 2.79   2 2.79  23 2.79  33 2.80  27 2.80  39 2.81
                            31 2.81
  30  0.869  0.453  0.430-  38 2.77  28 2.79  56 2.79  63 2.79   9 2.79  33 2.80  35 2.80  52 2.81
                            32 2.81
  31  0.368  0.953  0.430-  37 2.77  13 2.79  36 2.79  23 2.79  73 2.80  34 2.80  33 2.80  52 2.81
                            29 2.81
  32  0.869  0.202  0.430-  38 2.77  63 2.79  29 2.79  72 2.79  47 2.79  33 2.80  27 2.80  40 2.81
                            30 2.81
  33  0.118  0.203  0.430-   9 2.79  47 2.79  13 2.79  32 2.80  30 2.80  29 2.80  28 2.80  36 2.80
                            31 2.80
  34  0.618  0.953  0.430-  52 2.78  40 2.78  43 2.79  73 2.79   1 2.80  31 2.80  36 2.80  27 2.81
                            35 2.81
  35  0.868  0.703  0.430-  39 2.78  52 2.78   1 2.79  56 2.79   3 2.80  28 2.80  30 2.80  27 2.81
                            34 2.81
  36  0.368  0.202  0.430-  50 2.77  13 2.79  15 2.79  31 2.79  43 2.80  33 2.80  34 2.80  40 2.81
                            28 2.81
  37  0.365  0.708  0.432-  81 1.86  31 2.77  29 2.77  23 2.79  57 2.82  14 2.82  39 2.83  52 2.83
                            38 2.89  50 2.89
  38  0.623  0.450  0.432-  81 1.86  32 2.77  30 2.77  63 2.79  14 2.82  41 2.82  52 2.83  40 2.83
                            50 2.89  37 2.89
  39  0.115  0.704  0.430-  35 2.78  27 2.78   2 2.78   3 2.78  57 2.80  28 2.81  29 2.81  37 2.83
                            50 2.83
  40  0.619  0.200  0.430-  34 2.78  27 2.78  43 2.78  72 2.79  41 2.79  36 2.81  32 2.81  50 2.83
                            38 2.83
  41  0.535  0.369  0.328-  51 2.74  80 2.75  79 2.76  40 2.79  14 2.80  57 2.80  63 2.80  15 2.80
                            72 2.81  43 2.81  38 2.82  50 2.82
  42  0.536  0.368  0.023-   7 2.79  22 2.79  61 2.80  59 2.80  17 2.80  64 2.80  18 2.81  74 2.81
                            44 2.81
  43  0.535  0.119  0.327-  80 2.73  69 2.74  71 2.74  40 2.78  34 2.79  36 2.80  15 2.81   1 2.81
                            73 2.81  72 2.81  13 2.81  41 2.81
  44  0.536  0.118  0.023-  19 2.79   7 2.79  53 2.79  16 2.80  74 2.80   4 2.80  18 2.81  42 2.81
                            75 2.81
  45  0.869  0.452  0.126-  77 2.73  12 2.74  67 2.74  58 2.79  64 2.79  10 2.80  25 2.80  21 2.81
                            22 2.81  11 2.81  54 2.81  46 2.81
  46  0.119  0.452  0.126-  62 2.73  76 2.74  12 2.74   6 2.79  10 2.79  18 2.79  70 2.80  21 2.81
                            61 2.81  53 2.81  54 2.81  45 2.81
  47  0.035  0.119  0.327-  65 2.74  77 2.74  26 2.74  29 2.79  33 2.79  32 2.79  13 2.80   2 2.81
                             9 2.81  72 2.81  23 2.81  63 2.81
  48  0.036  0.118  0.023-  54 2.78  49 2.79  11 2.79  74 2.80   5 2.80  24 2.81  64 2.81  16 2.81
                            10 2.81
  49  0.119  0.952  0.126-  26 2.74  68 2.74  65 2.74  48 2.79   5 2.79  24 2.79  70 2.80  78 2.81
                            60 2.81   8 2.81  54 2.81  11 2.81
  50  0.365  0.450  0.432-  81 1.86  36 2.77  28 2.77  15 2.79  57 2.82  41 2.82  40 2.83  39 2.83
                            38 2.89  37 2.89
  51  0.452  0.536  0.227-  41 2.74  14 2.74  60 2.74  61 2.74  57 2.75  22 2.75  68 2.80  76 2.80
                            80 2.80  66 2.80  67 2.80  79 2.80
  52  0.619  0.704  0.430-  34 2.78  35 2.78  73 2.78  56 2.79  14 2.79  31 2.81  30 2.81  37 2.83
                            38 2.83
  53  0.369  0.202  0.126-  69 2.74  62 2.74  80 2.74  18 2.79  16 2.79  44 2.79   7 2.80  61 2.81
                            19 2.81  46 2.81  54 2.81   8 2.81
  54  0.119  0.202  0.125-  26 2.74  62 2.74  77 2.75  10 2.78  48 2.78  16 2.79  45 2.81  11 2.81
                            46 2.81  49 2.81  53 2.81   8 2.81
  55  0.952  0.786  0.226-   3 2.74  78 2.74   2 2.74  21 2.74  70 2.74   1 2.74  12 2.80  65 2.81
                            20 2.81  71 2.81  68 2.81  76 2.81
  56  0.785  0.619  0.327-  67 2.74  20 2.74  12 2.74  52 2.79  30 2.79  35 2.79  63 2.81   9 2.81
                             1 2.81  73 2.81   3 2.81  14 2.81
  57  0.285  0.619  0.328-  51 2.75  68 2.75  76 2.75  39 2.80  14 2.80  41 2.80  23 2.80  15 2.80
                             2 2.81   3 2.81  50 2.82  37 2.82
  58  0.786  0.618  0.023-  45 2.79  21 2.79  25 2.80  10 2.80  75 2.80  17 2.81   4 2.81  64 2.81
                             6 2.81
  59  0.286  0.618  0.023-  61 2.79  60 2.79  70 2.79  42 2.80  17 2.80  18 2.80  24 2.80   5 2.81
                             6 2.81
  60  0.369  0.702  0.126-  66 2.74  68 2.74  51 2.74  59 2.79  24 2.79  17 2.80  22 2.80  61 2.80
                            25 2.80  70 2.80   8 2.81  49 2.81
[...]

 FORCES acting on ions
    electron-ion (+dipol)            ewald-force                    non-local-force                 convergence-correction
   -.208E+00 0.869E-01 -.131E+04   0.206E+00 -.844E-01 0.131E+04   0.457E-02 -.361E-02 0.786E+00   -.540E-05 -.127E-04 0.746E-04
   -.980E+00 0.462E+00 -.131E+04   0.999E+00 -.480E+00 0.131E+04   -.184E-01 0.181E-01 0.770E+00   0.223E-04 -.123E-05 0.533E-04
   -.899E+00 0.617E+00 -.131E+04   0.927E+00 -.622E+00 0.131E+04   -.286E-01 0.240E-02 0.770E+00   -.419E-05 -.566E-04 0.109E-03
   -.144E+00 0.918E-02 0.260E+04   0.147E+00 -.116E-01 -.259E+04   -.403E-02 0.350E-02 -.142E+01   0.503E-04 0.519E-04 -.290E-04
   -.365E-01 0.274E-01 0.259E+04   0.464E-01 -.387E-01 -.259E+04   -.123E-01 0.151E-01 -.141E+01   -.133E-04 0.514E-04 -.117E-04
   -.192E+00 -.344E-01 0.259E+04   0.200E+00 0.284E-01 -.259E+04   -.105E-01 0.567E-02 -.141E+01   0.191E-04 -.746E-05 -.289E-04
   -.158E+00 0.136E+00 0.132E+04   0.158E+00 -.126E+00 -.132E+04   -.507E-03 -.877E-02 -.749E+00   0.227E-04 -.216E-04 -.694E-04
   0.828E-01 -.357E+00 0.132E+04   -.823E-01 0.349E+00 -.132E+04   -.281E-02 0.788E-02 -.747E+00   -.378E-04 0.616E-04 0.381E-04
   0.174E+00 0.788E+00 -.131E+04   -.177E+00 -.786E+00 0.131E+04   0.519E-02 -.528E-02 0.763E+00   0.153E-04 -.296E-04 0.107E-03
   0.212E+00 0.989E+00 0.260E+04   -.202E+00 -.962E+00 -.259E+04   -.131E-01 -.278E-01 -.146E+01   0.156E-05 -.430E-04 0.103E-04
   -.113E+00 0.152E+00 0.132E+04   0.108E+00 -.147E+00 -.132E+04   0.311E-02 -.319E-02 -.747E+00   0.432E-04 -.287E-04 -.435E-04
   -.605E-02 0.337E+00 0.547E+01   0.620E-02 -.335E+00 -.545E+01   -.107E-02 -.276E-02 -.305E-01   -.187E-04 -.512E-04 0.448E-04
   0.624E+00 -.279E+00 -.131E+04   -.625E+00 0.280E+00 0.131E+04   0.163E-02 -.153E-02 0.759E+00   -.266E-04 0.434E-04 0.682E-04
   0.257E+01 0.140E+01 -.133E+04   -.262E+01 -.142E+01 0.133E+04   0.609E-01 0.269E-01 0.750E+00   -.121E-04 -.162E-04 0.302E-04
   -.144E+00 0.231E-01 -.131E+04   0.301E+00 0.691E-01 0.131E+04   -.157E+00 -.933E-01 0.619E+00   -.374E-04 -.107E-04 0.131E-03
   0.765E+00 -.476E+00 0.259E+04   -.734E+00 0.455E+00 -.259E+04   -.344E-01 0.240E-01 -.146E+01   -.169E-04 0.430E-04 0.218E-04
   0.198E+00 -.186E+00 0.259E+04   -.184E+00 0.181E+00 -.259E+04   -.150E-01 0.908E-02 -.141E+01   -.113E-04 -.380E-04 -.273E-04
   0.678E-02 0.992E-01 0.259E+04   -.125E-02 -.107E+00 -.259E+04   -.126E-01 0.727E-02 -.140E+01   -.558E-05 -.251E-04 -.224E-04
   0.169E+00 -.154E+00 0.132E+04   -.166E+00 0.152E+00 -.132E+04   -.186E-02 0.337E-02 -.744E+00   -.129E-04 0.416E-04 -.168E-04
   0.429E+00 0.969E-01 0.557E+01   -.437E+00 -.999E-01 -.557E+01   0.105E-01 0.339E-02 0.504E-02   -.360E-04 -.499E-05 0.368E-04
   0.130E+00 0.197E+00 0.132E+04   -.128E+00 -.197E+00 -.132E+04   -.380E-02 0.338E-02 -.740E+00   0.106E-04 -.116E-04 -.183E-04
   -.949E-01 0.617E-02 0.132E+04   0.832E-01 0.442E-03 -.132E+04   0.922E-02 -.504E-02 -.753E+00   0.306E-04 -.513E-04 -.727E-05
   -.172E+00 0.164E+00 -.131E+04   0.171E+00 -.343E+00 0.131E+04   0.436E-02 0.179E+00 0.621E+00   0.652E-05 0.250E-04 0.135E-04
   -.118E+00 -.492E-01 0.259E+04   0.122E+00 0.469E-01 -.259E+04   -.509E-02 0.675E-02 -.140E+01   -.508E-04 0.586E-04 0.509E-05
   -.655E-01 0.481E-01 0.132E+04   0.590E-01 -.551E-01 -.132E+04   0.429E-02 0.698E-02 -.752E+00   -.133E-05 0.897E-05 0.400E-04
   0.588E-01 0.149E+01 0.720E+01   -.593E-01 -.145E+01 -.724E+01   0.801E-03 -.435E-01 0.336E-01   0.313E-05 0.208E-04 -.361E-06
   -.206E+00 -.563E-01 -.259E+04   0.207E+00 0.638E-01 0.259E+04   0.844E-03 -.932E-02 0.136E+01   -.495E-05 0.219E-05 0.304E-04
   0.353E+01 0.509E+00 -.259E+04   -.351E+01 -.518E+00 0.259E+04   -.263E-01 0.798E-02 0.137E+01   -.358E-05 -.485E-04 0.151E-04
   0.132E+01 -.329E+01 -.259E+04   -.130E+01 0.328E+01 0.259E+04   -.194E-01 0.166E-01 0.137E+01   0.111E-04 0.422E-04 0.129E-04
   -.358E+01 0.597E+00 -.259E+04   0.354E+01 -.599E+00 0.259E+04   0.431E-01 -.759E-03 0.137E+01   0.610E-04 -.483E-04 0.110E-04
   -.120E+01 -.349E+01 -.259E+04   0.117E+01 0.347E+01 0.259E+04   0.298E-01 0.240E-01 0.137E+01   -.777E-05 0.784E-04 0.677E-05
   -.223E+01 0.286E+01 -.259E+04   0.222E+01 -.282E+01 0.259E+04   0.187E-01 -.386E-01 0.137E+01   0.386E-04 0.313E-04 0.176E-04
   -.957E-01 0.978E-01 -.259E+04   0.884E-01 -.926E-01 0.259E+04   0.111E-01 -.707E-02 0.139E+01   0.320E-04 0.599E-04 0.361E-05
   -.126E+00 0.115E+00 -.259E+04   0.108E+00 -.104E+00 0.259E+04   0.217E-01 -.130E-01 0.135E+01   0.190E-05 0.386E-04 0.242E-04
   -.619E-02 0.120E+00 -.259E+04   0.459E-02 -.127E+00 0.259E+04   0.393E-02 0.712E-02 0.136E+01   0.301E-04 -.569E-04 0.234E-04
   0.240E+01 0.293E+01 -.259E+04   -.239E+01 -.289E+01 0.259E+04   -.932E-03 -.468E-01 0.137E+01   -.401E-04 0.602E-04 0.156E-04
   -.463E-01 -.798E+01 -.258E+04   0.393E-01 0.877E+01 0.258E+04   0.110E-01 -.816E+00 0.870E+00   -.270E-04 -.337E-04 0.526E-05
   -.710E+01 0.407E+01 -.258E+04   0.778E+01 -.446E+01 0.258E+04   -.695E+00 0.400E+00 0.877E+00   -.601E-05 -.295E-04 0.928E-05
   -.439E+01 0.251E+01 -.259E+04   0.402E+01 -.230E+01 0.258E+04   0.368E+00 -.214E+00 0.151E+01   -.197E-04 -.640E-04 0.195E-04
   -.380E+00 -.501E+01 -.259E+04   0.369E+00 0.460E+01 0.258E+04   0.135E-01 0.414E+00 0.151E+01   -.298E-04 0.329E-04 0.257E-04
   0.366E-03 -.302E+01 -.133E+04   -.232E-02 0.307E+01 0.133E+04   0.257E-02 -.653E-01 0.750E+00   -.140E-04 0.196E-04 0.912E-04
   0.178E+00 0.981E-01 0.259E+04   -.170E+00 -.103E+00 -.259E+04   -.103E-01 0.277E-02 -.141E+01   -.228E-05 -.687E-04 -.375E-04
   0.238E+00 -.132E+01 -.131E+04   -.231E+00 0.136E+01 0.131E+04   -.742E-02 -.333E-01 0.770E+00   -.426E-04 0.283E-04 0.874E-04
   0.119E+00 -.538E+00 0.259E+04   -.111E+00 0.530E+00 -.259E+04   -.115E-01 0.919E-02 -.141E+01   0.300E-04 0.348E-04 -.170E-04
   -.113E+00 0.776E-01 0.132E+04   0.107E+00 -.751E-01 -.132E+04   0.344E-02 -.314E-02 -.746E+00   0.157E-04 -.745E-04 -.414E-07
   0.170E+00 0.195E+00 0.132E+04   -.161E+00 -.192E+00 -.132E+04   -.924E-02 -.115E-02 -.748E+00   -.277E-04 -.551E-04 -.300E-04
   -.589E+00 -.552E+00 -.131E+04   0.587E+00 0.553E+00 0.131E+04   0.568E-02 0.678E-03 0.762E+00   0.497E-04 0.392E-04 0.505E-04
   -.732E+00 -.640E+00 0.260E+04   0.712E+00 0.616E+00 -.259E+04   0.194E-01 0.252E-01 -.146E+01   -.319E-04 0.132E-04 0.271E-04
   -.718E-01 -.278E+00 0.132E+04   0.748E-01 0.268E+00 -.132E+04   -.403E-02 0.110E-01 -.750E+00   0.515E-05 0.684E-04 -.649E-05
   0.704E+01 0.391E+01 -.258E+04   -.772E+01 -.430E+01 0.258E+04   0.700E+00 0.400E+00 0.868E+00   -.499E-04 -.305E-04 0.117E-04
   -.170E+00 0.957E-01 -.539E+01   0.169E+00 -.937E-01 0.548E+01   0.160E-02 -.382E-02 -.740E-01   0.190E-04 0.220E-04 0.712E-04
   0.429E+01 0.273E+01 -.259E+04   -.394E+01 -.252E+01 0.258E+04   -.356E+00 -.217E+00 0.151E+01   0.184E-04 -.299E-04 0.104E-04
   0.339E+00 0.140E+00 0.132E+04   -.332E+00 -.137E+00 -.132E+04   -.787E-02 -.207E-02 -.748E+00   -.431E-04 -.171E-04 -.289E-04
   -.123E+00 0.166E+00 0.133E+04   0.124E+00 -.165E+00 -.133E+04   -.119E-02 -.130E-02 -.584E+00   -.228E-04 -.226E-04 -.288E-05
   -.428E+00 0.191E+00 0.546E+01   0.435E+00 -.194E+00 -.547E+01   -.691E-02 0.249E-02 0.550E-02   0.152E-04 0.382E-05 0.288E-04
   0.937E+00 0.891E+00 -.131E+04   -.970E+00 -.897E+00 0.131E+04   0.363E-01 0.465E-02 0.771E+00   0.147E-04 -.461E-04 0.624E-04
   -.264E+01 0.156E+01 -.133E+04   0.269E+01 -.158E+01 0.133E+04   -.528E-01 0.279E-01 0.752E+00   0.995E-06 -.261E-04 0.753E-04
   0.336E+00 0.751E-01 0.259E+04   -.329E+00 -.830E-01 -.259E+04   -.862E-02 0.884E-02 -.141E+01   0.339E-04 -.357E-04 -.187E-04
   0.134E-01 -.541E-01 0.259E+04   -.890E-02 0.488E-01 -.259E+04   -.956E-02 0.887E-02 -.141E+01   -.418E-04 -.100E-04 -.373E-04
   0.509E-01 -.690E-02 0.132E+04   -.491E-01 -.728E-02 -.132E+04   -.249E-02 0.124E-01 -.747E+00   -.112E-04 0.508E-04 0.292E-04
[...]
   -.218E+00 0.128E+01 0.109E+01   0.248E+00 -.124E+01 -.111E+01   -.303E-01 -.419E-01 0.264E-01   0.351E-04 0.403E-04 0.268E-04
   0.151E+00 0.173E-01 0.537E+01   -.149E+00 -.163E-01 -.534E+01   -.221E-02 -.173E-02 -.296E-01   -.619E-04 0.424E-05 0.186E-04
   -.110E+00 0.849E-02 0.132E+04   0.120E+00 -.160E-01 -.132E+04   -.111E-01 0.795E-02 -.753E+00   0.215E-05 0.345E-04 -.346E-04
   0.644E-01 -.368E+00 0.559E+01   -.649E-01 0.378E+00 -.560E+01   0.360E-03 -.119E-01 0.658E-02   -.261E-05 0.900E-05 0.123E-04
   -.282E+00 -.114E+01 -.131E+04   0.273E+00 0.117E+01 0.131E+04   0.127E-01 -.332E-01 0.769E+00   0.194E-04 0.241E-04 0.702E-04
   0.131E+01 0.519E+00 -.131E+04   -.134E+01 -.537E+00 0.131E+04   0.275E-01 0.192E-01 0.773E+00   -.236E-04 0.206E-04 0.239E-04
   0.122E+00 -.341E+00 0.259E+04   -.113E+00 0.335E+00 -.259E+04   -.102E-01 0.680E-02 -.141E+01   0.189E-04 0.512E-05 -.118E-04
   0.485E+00 0.400E-01 0.259E+04   -.479E+00 -.484E-01 -.259E+04   -.972E-02 0.119E-01 -.141E+01   0.137E-04 0.543E-04 -.667E-05
   -.131E+01 -.535E+00 0.906E+00   0.129E+01 0.487E+00 -.931E+00   0.218E-01 0.494E-01 0.242E-01   -.752E-05 -.112E-04 0.572E-04
   0.119E+01 -.705E+00 0.679E+01   -.116E+01 0.687E+00 -.683E+01   -.320E-01 0.176E-01 0.280E-01   0.280E-04 -.281E-04 0.933E-05
   -.132E+00 -.246E+00 0.132E+04   0.133E+00 0.244E+00 -.132E+04   -.439E-02 0.102E-02 -.740E+00   0.457E-04 0.485E-04 -.611E-04
   0.112E+01 -.104E+01 0.933E+00   -.107E+01 0.105E+01 -.959E+00   -.495E-01 -.969E-02 0.264E-01   0.400E-04 0.145E-05 0.201E-04
   -.116E+01 -.869E+00 0.733E+00   0.111E+01 0.878E+00 -.756E+00   0.508E-01 -.938E-02 0.235E-01   -.227E-04 -.117E-04 0.404E-04
   -.282E-01 -.111E-01 -.303E+03   0.341E-01 0.917E-02 0.304E+03   -.271E-02 0.759E-05 -.133E+01   -.434E-05 -.521E-05 -.207E-05
   0.120E-01 -.456E-02 0.313E+01   0.161E-12 -.205E-13 -.227E-11   0.130E-01 -.183E-01 -.315E+01   -.985E-06 -.204E-05 0.138E-02

 POSITION                                       TOTAL-FORCE (eV/Angst)
     13.68547      8.44776      7.19041         0.002446     -0.000749     -0.004867
      5.26958      8.44780      7.18927         0.001598     -0.000105     -0.001333
      3.86640      6.01707      7.18926        -0.000083     -0.003585     -0.001490
     13.69613      8.43845      0.49648        -0.001464      0.001587      0.004906
      5.27993      8.43681      0.49908        -0.002295      0.004209      0.001373
      3.87781      6.00857      0.49897        -0.002485     -0.000449      0.002482
      8.08062      1.96422      2.77395        -0.001074      0.001529      0.001061
      9.48460      9.24897      2.77301        -0.002959     -0.000791     -0.000260
      2.46313      3.58789      7.18615         0.002170     -0.003094      0.000882
      2.47425      3.58226      0.49959        -0.003215     -0.000247      0.004135
     10.88447      1.96355      2.77315        -0.001737      0.002314     -0.000698
     13.68893      5.20611      4.98157        -0.001297     -0.002200     -0.002238
      3.86549      1.15885      7.18684        -0.000005      0.000440      0.000979
      9.47423      6.01608      7.21169         0.004414     -0.000410      0.000087
      5.27376      3.59085      7.19633         0.003345      0.000826      0.000489
      3.87945      1.14712      0.50053        -0.003175      0.002697      0.003138
      9.48806      6.00773      0.50165        -0.002029      0.003651      0.002893
      5.28036      3.57890      0.50013        -0.007121     -0.000069      0.002528
     12.29020      9.25112      2.77140         0.000201      0.000927      0.001338
     12.28560      7.63423      4.98077         0.000885     -0.000197     -0.001566
     13.69304      6.82250      2.77082        -0.001989      0.003183      0.002172
      9.48175      4.39330      2.77774        -0.002957      0.001967     -0.001877
      8.07428      8.44254      7.19596         0.002825     -0.003729      0.001239
      8.08495      8.43748      0.49992        -0.001645      0.004541      0.002986
     10.88533      6.82111      2.77415        -0.003417      0.000188     -0.000492
      2.46659      0.34864      4.97597         0.000035      0.001145     -0.003624
     15.08561      9.25963      9.46732         0.003235     -0.001185     -0.002565
      3.85520      4.39944      9.46315         0.004360     -0.000440      0.000300
      6.66528      9.26734      9.46350         0.003685     -0.003649     -0.002121
     12.28736      4.39989      9.46401         0.000189     -0.003042     -0.002377
      9.47730      9.26676      9.46412         0.000302     -0.003400     -0.001502
     10.88126      1.96447      9.46370         0.003224      0.000810      0.000125
      2.45927      1.97096      9.46100         0.003511     -0.001474     -0.002067
     12.27880      9.26020      9.46695         0.002198     -0.000879     -0.002162
     13.68307      6.82969      9.46683         0.002235     -0.001024     -0.002279
      5.26088      1.96493      9.46408         0.003966     -0.002632     -0.001174
      8.07115      6.88000      9.50430         0.003761     -0.001575      0.003265
      9.51653      4.37597      9.50435         0.002444     -0.001826      0.003233
      5.23930      6.84526      9.46279         0.001019     -0.001145     -0.001357
      8.07036      1.93944      9.46442         0.002388     -0.002240     -0.002829
      8.07463      3.59112      7.21184         0.000370     -0.003337      0.000778
      8.08558      3.57988      0.50170        -0.002843     -0.000973      0.002099
      6.67148      1.15837      7.18974        -0.001316     -0.001236     -0.001195
      6.68321      1.14881      0.49928        -0.003769      0.001600      0.002657
     12.28768      4.39395      2.77296        -0.003195     -0.000466      0.000127
      3.87471      4.39389      2.77299         0.000072      0.001390      0.000229
      1.06060      1.15809      7.18596         0.002971      0.000817      0.000151
      1.06792      1.14673      0.50001        -0.001843      0.001405      0.002541
      6.67791      9.24904      2.77322        -0.001179      0.000890     -0.000278
      6.62632      4.37560      9.50428         0.000330     -0.000759      0.002639
      8.07751      5.20558      4.99519         0.000632     -0.001383      0.002754
     10.90355      6.84596      9.46347         0.000869     -0.001306     -0.001374
      5.27812      1.96316      2.77325        -0.000867      0.001762     -0.001496
      2.46926      1.96309      2.76025        -0.000872      0.000260      0.004626
     15.09242      7.63468      4.98066         0.000303     -0.000369     -0.000947
     12.28249      6.01763      7.18968         0.002682     -0.001935      0.001155
      6.67475      6.01641      7.21138        -0.000337      0.000375      0.001774
     12.29348      6.00858      0.49931        -0.002454      0.000830      0.003447
      6.68363      6.00761      0.50224        -0.005214      0.003849      0.001969
      8.08148      6.81978      2.77710        -0.001059     -0.001483     -0.001044
[...]
     10.88175      5.20418      4.98586         0.001683     -0.000464     -0.001063
      6.67668      7.63370      4.98550         0.001135      0.000551     -0.001191
      5.27252      0.34587      4.98175        -0.002699      0.000373     -0.001813
      5.27689      6.82094      2.77431        -0.001037      0.000577     -0.000985
      8.07796      0.34658      4.98075        -0.000273     -0.000729     -0.000081
      9.47744      1.15881      7.18999         0.003337     -0.000269     -0.000150
     10.87952      8.44791      7.18917         0.001426      0.000782     -0.000133
      9.48766      1.14903      0.49978        -0.002114      0.001953      0.001729
     10.89112      8.43730      0.49921        -0.003714      0.003997      0.001054
      5.27373      5.20402      4.98587         0.000253      0.000690     -0.001283
     12.28811      2.77436      4.97648         0.001285     -0.000912     -0.004520
     15.09513      9.25115      2.77086        -0.003571     -0.000517      0.001856
      9.48051      2.77703      4.98569         0.000429     -0.000211     -0.000376
      6.67503      2.77756      4.98598        -0.000283      0.000059     -0.001017
      8.07032      5.21121     10.33364         0.002825     -0.001654     -0.004849
    total drift:                                0.024980     -0.022882     -0.021586

  FREE ENERGIE OF THE ION-ELECTRON SYSTEM (eV)
  free  energy   TOTEN  =      -517.93450833 eV

  energy  without entropy=     -517.97642389  energy(sigma->0) =     -517.94848018

 Quasi-Newton relaxation of ions (Broydens 2nd method)
  g(Force)  = 0.110E-05   g(Stress)= 0.000E+00

 Reset! Starting new Quasi-Newton update for ions

 reached required accuracy - stopping structural energy minimisation