 vasp.5.4.4.18Apr17-6-g9f103f2a35 (build Nov 30 2020 22:55:02) complex

 executed on             LinuxIFC date 2023.09.10  22:39:30

 INCAR:
 POTCAR:    PAW_PBE Cu 22Jun2005
 POTCAR:    PAW_PBE Pt 04Feb2005
 POTCAR:    PAW_PBE H 15Jun2001
 POTCAR:    PAW_PBE Cu 22Jun2005
   VRHFIN =Cu: d10 p1

   TITEL  = PAW_PBE Cu 22Jun2005
   POMASS =   63.546; ZVAL   =   11.000    mass and valenz
   ENMAX  =  295.446; ENMIN  =  221.585 eV

 POTCAR:    PAW_PBE Pt 04Feb2005
   VRHFIN =Pt: s1d9

   TITEL  = PAW_PBE Pt 04Feb2005
   POMASS =  195.080; ZVAL   =   10.000    mass and valenz
   ENMAX  =  230.283; ENMIN  =  172.712 eV

 POTCAR:    PAW_PBE H 15Jun2001
   VRHFIN =H: ultrasoft test

   TITEL  = PAW_PBE H 15Jun2001
   POMASS =    1.000; ZVAL   =    1.000    mass and valenz
   ENMAX  =  250.000; ENMIN  =  200.000 eV

 Optimization of the real space projectors (new method)

 maximal supplied QI-value         = 16.25
 optimisation between [QCUT,QGAM] = [ 11.86, 23.89] = [ 39.41,159.82] Ry
 Optimized for a Real-space Cutoff    1.49 Angstroem

   l    n(q)    QCUT    max X(q) W(low)/X(q) W(high)/X(q)  e(spline)
   2     10    11.864     4.610    0.10E-03    0.20E-03    0.29E-06
   2     10    11.864     8.522    0.17E-03    0.33E-03    0.50E-06
   0     11    11.864    51.609    0.52E-04    0.55E-04    0.33E-06
   0     11    11.864    27.747    0.46E-04    0.52E-04    0.31E-06
   1     10    11.864    20.408    0.54E-04    0.25E-04    0.21E-06
   1     10    11.864    13.425    0.48E-04    0.22E-04    0.18E-06
 Optimization of the real space projectors (new method)

[...]

   l    n(q)    QCUT    max X(q) W(low)/X(q) W(high)/X(q)  e(spline)
   2     10    11.920    66.195    0.79E-04    0.18E-03    0.24E-06
   2     10    11.920    64.643    0.81E-04    0.19E-03    0.24E-06
   0     11    11.920    95.520    0.28E-04    0.54E-04    0.18E-06
   0     11    11.920    63.403    0.27E-04    0.52E-04    0.17E-06
   1     10    11.920    19.961    0.18E-04    0.11E-03    0.23E-06
   1     10    11.920    13.289    0.25E-04    0.87E-04    0.19E-06
 Optimization of the real space projectors (new method)

 maximal supplied QI-value         = 34.20
 optimisation between [QCUT,QGAM] = [ 11.97, 23.94] = [ 40.13,160.53] Ry
 Optimized for a Real-space Cutoff    1.18 Angstroem

   l    n(q)    QCUT    max X(q) W(low)/X(q) W(high)/X(q)  e(spline)
   0      8    11.971    19.460    0.15E-03    0.31E-03    0.25E-06
   0      8    11.971    12.209    0.13E-03    0.29E-03    0.25E-06
   1      8    11.971     4.655    0.22E-03    0.24E-03    0.21E-06
  PAW_PBE Cu 22Jun2005                  :
  PAW_PBE Pt 04Feb2005                  :
  PAW_PBE H 15Jun2001                   :

 POSCAR: PtM\(2)
  positions in direct lattice
  velocities in cartesian coordinates
 exchange correlation table for  LEXCH =        8
   RHO(1)=    0.500       N(1)  =     2000
   RHO(2)=  100.500       N(2)  =     4000

 ion  position               nearest neighbor table
   1  0.785  0.869  0.314-  55 2.49  20 2.49  39 2.49  57 2.64  40 2.64  56 2.64  29 2.64   2 2.64
                             3 2.64  73 2.65  72 2.66  65 2.66
   2  0.035  0.870  0.314-  52 2.48  49 2.48  39 2.49  33 2.63  56 2.63  23 2.64   1 2.64   3 2.64
                            77 2.64  41 2.65  65 2.66  67 2.67
   3  0.035  0.619  0.314-  60 2.48  39 2.48  12 2.49  40 2.64  15 2.64   1 2.64   2 2.64   9 2.64
                            77 2.65  41 2.65  73 2.65  66 2.66
   4  0.786  0.868  0.045-  21 2.50  62 2.50  19 2.51  30 2.64  59 2.64  58 2.64  42 2.64   6 2.64
                             5 2.64
   5  0.036  0.868  0.045-  54 2.50  35 2.50  62 2.51  43 2.64   6 2.64  34 2.64  24 2.64  58 2.64
                             4 2.64
   6  0.036  0.618  0.045-  32 2.50  54 2.50  21 2.51   5 2.64  10 2.64  43 2.64   4 2.64  42 2.64
                            18 2.64
   7  0.619  0.202  0.135-  55 2.48  64 2.50  63 2.50  28 2.50  30 2.50  58 2.51  45 2.64  22 2.64
                            37 2.64  11 2.64  19 2.64  62 2.64
   8  0.369  0.952  0.135-  53 2.48  26 2.49  16 2.50  24 2.50  50 2.51  59 2.51  19 2.64  35 2.64
                            44 2.64  37 2.64  25 2.64  38 2.64
   9  0.035  0.369  0.314-  61 2.48  12 2.49  46 2.49  15 2.63  40 2.64  13 2.64  68 2.64  33 2.64
                             3 2.64  47 2.65  66 2.65  71 2.66
  10  0.036  0.368  0.045-  38 2.50  32 2.50  31 2.51  16 2.64   6 2.64  34 2.64  18 2.64  42 2.64
                            48 2.64
  11  0.869  0.202  0.135-  49 2.48  61 2.49  63 2.50  48 2.50  58 2.50  34 2.51  31 2.64  38 2.64
                            22 2.64  62 2.64   7 2.64  35 2.64
  12  0.952  0.535  0.225-  21 2.48  31 2.48   9 2.49  32 2.49   3 2.49  40 2.49  46 2.64  61 2.64
                            20 2.64  39 2.64  51 2.65  60 2.65
  13  0.285  0.119  0.314-  26 2.48  46 2.49  53 2.49  15 2.63  57 2.64  69 2.64   9 2.64  33 2.64
                            29 2.65  23 2.65  74 2.65  71 2.66
  14  0.535  0.619  0.317-  36 2.52  50 2.52  51 2.53  41 2.62  27 2.62  47 2.63  23 2.63  40 2.65
                            57 2.65  80 2.68  76 2.72  75 2.73
  15  0.284  0.369  0.314-  60 2.48  46 2.48  64 2.49  13 2.63   9 2.63   3 2.64  29 2.64  27 2.66
                            74 2.66  41 2.66  66 2.66  79 2.66
  16  0.286  0.118  0.045-   8 2.50  37 2.50  38 2.51  24 2.64  10 2.64  34 2.64  59 2.64  18 2.64
                            30 2.64
  17  0.536  0.618  0.045-  22 2.50  25 2.50  44 2.51  42 2.64  48 2.64  59 2.64  28 2.64  24 2.64
                            43 2.64
  18  0.286  0.368  0.045-  37 2.50  45 2.50  32 2.51  28 2.64  30 2.64  43 2.64  10 2.64  16 2.64
                             6 2.64
  19  0.619  0.952  0.135-  55 2.49  20 2.49  53 2.49  30 2.50  59 2.50   4 2.51  25 2.64   8 2.64
                            37 2.64  21 2.64   7 2.64  62 2.64
  20  0.702  0.786  0.225-  25 2.49  40 2.49  19 2.49   1 2.49  57 2.49  21 2.49  50 2.64  51 2.64
                            12 2.64  53 2.64  39 2.64  55 2.64
  21  0.869  0.702  0.135-  12 2.48  39 2.49  20 2.49   4 2.50  42 2.50   6 2.51  32 2.64  31 2.64
                            25 2.64  62 2.64  54 2.64  19 2.64
  22  0.619  0.452  0.135-  63 2.49  51 2.50  17 2.50  28 2.50  48 2.51  36 2.51  44 2.64  45 2.64
                             7 2.64  25 2.64  11 2.64  31 2.64
  23  0.286  0.868  0.315-  52 2.49  50 2.49  26 2.51  41 2.62  14 2.63   2 2.64  57 2.64  69 2.64
                            13 2.65  33 2.65  67 2.65  75 2.71
  24  0.286  0.868  0.045-  44 2.50   8 2.50  35 2.51  59 2.64  16 2.64  17 2.64  43 2.64   5 2.64
                            34 2.64
  25  0.619  0.702  0.135-  20 2.49  51 2.50  50 2.50  59 2.50  17 2.50  42 2.51  19 2.64  44 2.64
                             8 2.64  22 2.64  21 2.64  31 2.64
  26  0.202  0.035  0.225-  13 2.48  35 2.49  33 2.49   8 2.49  38 2.50  23 2.51  52 2.63  49 2.64
                            53 2.64  50 2.64  46 2.64  61 2.65
  27  0.535  0.371  0.316-  36 2.49  63 2.51  64 2.51  47 2.62  14 2.62  41 2.63  78 2.64  29 2.65
                            56 2.65  15 2.66  79 2.69  76 2.73
  28  0.536  0.368  0.045-   7 2.50  22 2.50  45 2.51  48 2.64  18 2.64  43 2.64  17 2.64  58 2.64
                            30 2.64
  29  0.535  0.120  0.314-  64 2.48  55 2.49  53 2.49  57 2.64  15 2.64   1 2.64  56 2.64  13 2.65
                            78 2.65  72 2.65  27 2.65  74 2.66
  30  0.536  0.118  0.045-  19 2.50   7 2.50  37 2.51   4 2.64  18 2.64  58 2.64  59 2.64  16 2.64
                            28 2.64
  31  0.869  0.452  0.135-  12 2.48  61 2.49  42 2.50  48 2.50  10 2.51  51 2.51  38 2.64  11 2.64
                            21 2.64  32 2.64  22 2.64  25 2.64
  32  0.119  0.452  0.135-  46 2.48  12 2.49  60 2.50   6 2.50  10 2.50  18 2.51  54 2.64  45 2.64
                            21 2.64  37 2.64  38 2.64  31 2.64
  33  0.035  0.119  0.314-  49 2.49  61 2.49  26 2.49   2 2.63  56 2.63  13 2.64   9 2.64  71 2.65
                            23 2.65  47 2.65  67 2.66  70 2.66
  34  0.036  0.118  0.045-  35 2.50  38 2.50  11 2.51  58 2.64  16 2.64   5 2.64  10 2.64  24 2.64
                            48 2.64
  35  0.119  0.952  0.135-  49 2.49  26 2.49  52 2.50  34 2.50   5 2.50  24 2.51   8 2.64  44 2.64
                            62 2.64  54 2.64  11 2.64  38 2.64
  36  0.452  0.536  0.226-  27 2.49  41 2.49  44 2.50  22 2.51  45 2.51  14 2.52  50 2.62  51 2.62
                            63 2.63  52 2.63  60 2.64  64 2.64
  37  0.369  0.202  0.135-  53 2.48  46 2.49  64 2.50  18 2.50  16 2.50  30 2.51  38 2.64  32 2.64
                             7 2.64   8 2.64  19 2.64  45 2.64
  38  0.119  0.202  0.135-  46 2.48  26 2.50  61 2.50  10 2.50  34 2.50  16 2.51  31 2.64  37 2.64
                            32 2.64  11 2.64   8 2.64  35 2.64
  39  0.952  0.786  0.225-   3 2.48  62 2.48  21 2.49   2 2.49  54 2.49   1 2.49  55 2.64  12 2.64
                            49 2.64  20 2.64  52 2.64  60 2.64
  40  0.786  0.619  0.314-  51 2.48  20 2.49  12 2.49   9 2.64   3 2.64   1 2.64  47 2.64  57 2.65
                            14 2.65  68 2.65  73 2.66  80 2.67
  41  0.286  0.619  0.316-  36 2.49  52 2.51  60 2.51  23 2.62  14 2.62  27 2.63  77 2.64   3 2.65
                             2 2.65  15 2.66  79 2.68  75 2.73
  42  0.786  0.618  0.045-  31 2.50  21 2.50  25 2.51  17 2.64  59 2.64  48 2.64   4 2.64   6 2.64
                            10 2.64
  43  0.286  0.618  0.045-  45 2.50  44 2.50  54 2.51  28 2.64   5 2.64  18 2.64  17 2.64  24 2.64
                             6 2.64
  44  0.369  0.702  0.135-  52 2.50  50 2.50  24 2.50  43 2.50  36 2.50  17 2.51  22 2.64  25 2.64
                            35 2.64   8 2.64  54 2.64  45 2.64
  45  0.369  0.452  0.135-  64 2.49  60 2.49  43 2.50  18 2.50  28 2.51  36 2.51  54 2.64  32 2.64
                             7 2.64  22 2.64  37 2.64  44 2.64
  46  0.202  0.286  0.224-  38 2.48  32 2.48  15 2.48  13 2.49  37 2.49   9 2.49  12 2.64  53 2.64
                            61 2.64  26 2.64  60 2.65  64 2.65
  47  0.783  0.370  0.315-  51 2.49  63 2.49  61 2.51  27 2.62  14 2.63  56 2.64  40 2.64  68 2.64
                            70 2.65   9 2.65  33 2.65  76 2.71
  48  0.786  0.368  0.045-  11 2.50  31 2.50  22 2.51  28 2.64  17 2.64  42 2.64  58 2.64  34 2.64
                            10 2.64
  49  0.952  0.036  0.225-  11 2.48   2 2.48  33 2.49  35 2.49  56 2.49  62 2.49  26 2.64  61 2.64
                            55 2.64  39 2.64  63 2.65  52 2.65
  50  0.452  0.785  0.225-  57 2.48  23 2.49  44 2.50  25 2.50   8 2.51  14 2.52  36 2.62  51 2.63
                            52 2.63  20 2.64  26 2.64  53 2.65
  51  0.701  0.536  0.225-  40 2.48  47 2.49  22 2.50  25 2.50  31 2.51  14 2.53  36 2.62  50 2.63
                            63 2.63  20 2.64  61 2.64  12 2.65
  52  0.203  0.785  0.225-   2 2.48  23 2.49  44 2.50  35 2.50  54 2.50  41 2.51  60 2.63  50 2.63
                            36 2.63  26 2.63  39 2.64  49 2.65
  53  0.452  0.036  0.224-  37 2.48   8 2.48  57 2.49  29 2.49  19 2.49  13 2.49  46 2.64  26 2.64
                            20 2.64  55 2.64  64 2.65  50 2.65
[...]
   0.125E+01 -.375E+00 -.215E+04   -.124E+01 0.367E+00 0.215E+04   -.136E-01 0.440E-02 0.189E+01   0.201E-02 0.228E-02 -.491E-02
   -.233E+00 -.425E-01 0.389E+04   0.227E+00 0.523E-01 -.389E+04   0.559E-02 -.781E-02 -.308E+01   -.173E-02 0.211E-03 -.361E-02
   0.413E+00 -.274E+00 0.390E+04   -.421E+00 0.282E+00 -.389E+04   0.240E-02 -.156E-03 -.307E+01   0.896E-03 -.504E-02 -.290E-02
   0.248E+00 -.138E+00 0.390E+04   -.254E+00 0.146E+00 -.389E+04   -.636E-03 -.105E-01 -.307E+01   0.417E-02 0.594E-02 -.447E-02
   -.196E+00 0.637E+00 0.190E+04   0.186E+00 -.647E+00 -.190E+04   0.789E-02 -.352E-02 -.119E+01   0.403E-02 0.109E-01 -.108E-01
   -.183E+00 -.112E+01 0.190E+04   0.181E+00 0.113E+01 -.190E+04   0.276E-02 0.227E-01 -.121E+01   0.231E-02 -.201E-01 -.110E-01
   -.132E+01 0.130E+01 -.215E+04   0.133E+01 -.131E+01 0.215E+04   0.343E-02 -.828E-02 0.188E+01   -.468E-02 0.583E-02 -.675E-02
   0.939E-01 -.830E-01 0.390E+04   -.113E+00 0.953E-01 -.389E+04   0.169E-01 -.137E-01 -.311E+01   -.526E-02 0.695E-02 -.702E-02
   -.174E+00 0.721E+00 0.190E+04   0.182E+00 -.719E+00 -.190E+04   0.877E-02 -.127E-01 -.119E+01   -.139E-01 0.783E-02 -.114E-01
   -.861E+00 0.316E+00 -.127E+03   0.878E+00 -.322E+00 0.128E+03   -.669E-02 -.657E-02 -.283E+00   -.916E-02 0.726E-02 -.614E-02
   0.520E+00 -.175E+01 -.215E+04   -.515E+00 0.175E+01 0.215E+04   -.163E-01 0.245E-01 0.188E+01   0.427E-02 -.989E-02 -.309E-02
   0.772E+00 0.370E+00 -.213E+04   -.743E+00 -.365E+00 0.213E+04   -.284E-01 -.600E-02 0.183E+01   -.351E-02 0.810E-03 -.122E-01
   0.204E+01 0.114E+01 -.215E+04   -.205E+01 -.115E+01 0.214E+04   -.212E-01 -.815E-03 0.190E+01   0.149E-01 0.680E-02 -.665E-02
   0.762E-01 -.406E+00 0.390E+04   -.871E-01 0.396E+00 -.389E+04   0.372E-02 0.179E-01 -.310E+01   0.441E-02 -.818E-02 -.661E-02
   0.214E+00 -.140E-01 0.390E+04   -.203E+00 0.295E-01 -.389E+04   -.111E-01 -.885E-02 -.311E+01   -.348E-02 -.248E-02 0.626E-02
   0.498E+00 -.152E-01 0.390E+04   -.501E+00 0.219E-01 -.389E+04   -.138E-01 -.866E-02 -.304E+01   0.137E-01 0.670E-02 -.368E-02
   -.801E+00 -.733E-01 0.190E+04   0.792E+00 0.733E-01 -.190E+04   0.130E-01 0.560E-02 -.118E+01   -.117E-03 -.552E-02 -.115E-01
   -.113E+01 -.597E+00 -.127E+03   0.115E+01 0.595E+00 0.128E+03   -.102E-01 0.398E-02 -.280E+00   -.882E-02 -.288E-02 -.154E-01
   -.336E+00 -.582E+00 0.190E+04   0.333E+00 0.574E+00 -.190E+04   0.118E-01 0.446E-02 -.118E+01   -.639E-02 0.404E-02 -.120E-01
   -.591E-01 0.170E+00 0.190E+04   0.778E-01 -.180E+00 -.190E+04   -.505E-02 -.106E-02 -.117E+01   -.850E-02 0.972E-02 -.862E-02
   0.103E+01 -.149E+00 -.214E+04   -.102E+01 0.180E+00 0.214E+04   -.681E-02 -.296E-01 0.190E+01   -.542E-03 -.992E-02 -.237E-02
   0.554E+00 -.304E+00 0.390E+04   -.560E+00 0.335E+00 -.389E+04   -.252E-02 -.105E-01 -.304E+01   0.261E-02 -.148E-01 -.752E-04
   -.526E+00 -.103E+00 0.190E+04   0.544E+00 0.117E+00 -.190E+04   0.270E-03 -.510E-02 -.119E+01   -.113E-01 -.603E-02 -.101E-01
   0.718E-02 -.135E+01 -.126E+03   -.520E-02 0.135E+01 0.126E+03   0.367E-02 0.188E-01 -.297E+00   -.109E-02 -.229E-01 -.107E-02
   -.833E+00 0.451E+00 -.214E+04   0.811E+00 -.490E+00 0.214E+04   0.236E-01 0.399E-01 0.190E+01   0.243E-02 0.273E-02 -.831E-02
   0.196E+00 0.264E+00 0.390E+04   -.209E+00 -.280E+00 -.389E+04   0.248E-02 0.617E-02 -.308E+01   0.414E-02 0.827E-02 0.431E-02
   0.351E+00 0.130E+01 -.215E+04   -.341E+00 -.130E+01 0.215E+04   -.132E-01 0.325E-02 0.189E+01   0.199E-03 0.543E-03 -.339E-02
   0.125E+00 -.922E-01 0.390E+04   -.130E+00 0.978E-01 -.389E+04   -.615E-02 -.183E-02 -.307E+01   0.760E-02 0.840E-03 -.334E-02
   -.919E+00 0.365E+00 0.190E+04   0.924E+00 -.367E+00 -.190E+04   0.202E-01 -.114E-01 -.121E+01   -.177E-01 0.111E-01 -.117E-01
   0.384E+00 0.399E+00 0.190E+04   -.372E+00 -.395E+00 -.190E+04   -.180E-01 -.152E-01 -.117E+01   0.779E-02 0.930E-02 -.124E-01
   -.424E+00 -.206E+00 -.215E+04   0.427E+00 0.198E+00 0.215E+04   0.816E-02 0.168E-01 0.188E+01   -.646E-02 -.598E-02 -.920E-03
   0.214E+00 -.148E+00 0.389E+04   -.222E+00 0.152E+00 -.389E+04   0.102E-01 0.988E-03 -.308E+01   -.702E-02 -.361E-02 -.677E-02
   0.488E+00 -.561E+00 0.190E+04   -.484E+00 0.566E+00 -.190E+04   -.252E-02 0.120E-01 -.119E+01   0.259E-03 -.145E-01 -.112E-01
   -.928E+00 -.513E+00 -.124E+03   0.930E+00 0.504E+00 0.124E+03   -.459E-02 0.804E-02 -.270E+00   0.666E-02 0.354E-02 -.325E-01
   0.368E+00 0.231E+00 0.190E+04   -.362E+00 -.219E+00 -.190E+04   -.173E-01 -.131E-01 -.117E+01   0.136E-01 0.685E-03 -.119E-01
   -.350E+00 -.112E+00 0.190E+04   0.348E+00 0.113E+00 -.190E+04   0.897E-02 0.176E-03 -.116E+01   -.343E-02 -.250E-02 -.134E-01
   0.804E+00 -.936E+00 -.127E+03   -.801E+00 0.930E+00 0.128E+03   -.896E-02 0.114E-01 -.290E+00   0.402E-02 -.664E-03 -.910E-02
   -.207E+01 -.106E+01 -.215E+04   0.209E+01 0.104E+01 0.214E+04   -.734E-02 0.128E-01 0.191E+01   -.600E-02 0.653E-02 -.777E-02
   0.122E-01 -.103E+01 -.214E+04   -.483E-01 0.102E+01 0.214E+04   0.359E-01 0.169E-01 0.190E+01   0.488E-02 0.297E-02 -.640E-02
   -.396E+00 -.194E-02 0.390E+04   0.395E+00 0.483E-02 -.389E+04   0.899E-02 -.546E-02 -.305E+01   -.110E-01 0.382E-02 -.455E-03
   0.427E+00 -.174E+00 0.390E+04   -.458E+00 0.188E+00 -.389E+04   0.128E-01 -.949E-02 -.308E+01   0.103E-01 -.160E-02 0.363E-02
   0.146E+00 0.637E-01 0.190E+04   -.148E+00 -.386E-01 -.190E+04   -.208E-02 -.104E-01 -.117E+01   0.577E-02 -.127E-01 -.845E-02
   0.254E+00 0.276E+00 0.190E+04   -.285E+00 -.290E+00 -.190E+04   0.107E-01 0.181E-02 -.119E+01   0.182E-01 0.869E-02 -.950E-02
   0.566E+00 0.318E+00 -.128E+03   -.568E+00 -.329E+00 0.128E+03   -.924E-02 0.606E-02 -.301E+00   0.963E-02 0.423E-02 0.212E-02
   0.396E+00 0.944E+00 -.214E+04   -.352E+00 -.971E+00 0.214E+04   -.393E-01 0.260E-01 0.190E+01   -.116E-01 0.461E-02 -.812E-02
   -.241E+00 0.291E+00 0.390E+04   0.251E+00 -.296E+00 -.389E+04   0.259E-02 -.310E-02 -.305E+01   -.126E-01 0.907E-02 0.181E-03
   0.329E+00 0.197E+00 -.128E+03   -.322E+00 -.205E+00 0.128E+03   0.965E-03 0.110E-01 -.284E+00   -.418E-02 -.133E-02 -.583E-02
   0.345E+00 0.119E+01 -.123E+03   -.339E+00 -.120E+01 0.123E+03   -.647E-02 0.734E-02 -.299E+00   -.198E-02 -.139E-01 -.188E-01
   0.116E+01 -.266E+00 -.123E+03   -.114E+01 0.255E+00 0.123E+03   -.572E-02 0.673E-02 -.298E+00   -.152E-01 0.632E-02 -.198E-01
   0.127E+00 0.341E-01 -.126E+03   -.129E+00 -.335E-01 0.126E+03   -.416E-02 0.966E-02 -.287E+00   0.690E-02 -.119E-01 -.165E-01
   -.218E+00 -.916E+00 -.127E+03   0.231E+00 0.918E+00 0.128E+03   -.180E-01 0.122E-01 -.284E+00   0.175E-02 -.104E-01 -.502E-02
   0.350E+00 -.404E+00 0.190E+04   -.366E+00 0.402E+00 -.190E+04   0.509E-02 0.393E-02 -.119E+01   0.119E-01 -.172E-02 -.111E-01
   -.429E+00 0.118E+01 -.127E+03   0.435E+00 -.119E+01 0.127E+03   -.340E-02 0.147E-02 -.291E+00   -.402E-03 0.611E-02 -.958E-02
   -.264E+00 0.238E+01 -.215E+04   0.270E+00 -.239E+01 0.215E+04   -.327E-02 -.424E-02 0.190E+01   -.247E-02 0.267E-02 -.110E-01
   -.190E+01 -.132E+01 -.215E+04   0.191E+01 0.133E+01 0.214E+04   -.171E-02 0.534E-02 0.191E+01   -.284E-03 -.406E-02 -.360E-02
   0.650E-01 0.162E+00 0.389E+04   -.698E-01 -.160E+00 -.389E+04   0.489E-02 -.294E-02 -.307E+01   -.494E-02 0.432E-02 -.224E-02
   -.234E+00 -.381E+00 0.390E+04   0.225E+00 0.395E+00 -.389E+04   0.682E-02 0.731E-03 -.305E+01   -.175E-02 -.104E-01 0.499E-05
   0.640E+00 0.170E+00 -.125E+03   -.649E+00 -.176E+00 0.126E+03   -.722E-02 -.137E-02 -.293E+00   0.193E-01 0.589E-02 -.104E-01
[...]
   -.339E+00 -.576E+01 -.349E+04   0.337E+00 0.575E+01 0.349E+04   -.173E-01 0.201E-01 0.158E+01   0.553E-02 0.793E-02 0.453E-02
   -.215E+01 0.359E+01 -.349E+04   0.215E+01 -.359E+01 0.349E+04   0.414E-02 0.141E-02 0.157E+01   0.848E-02 -.157E-01 0.913E-02
   -.109E+01 -.378E+00 -.349E+04   0.109E+01 0.385E+00 0.349E+04   0.150E-01 0.458E-02 0.160E+01   0.114E-02 -.556E-02 -.149E-01
   -.239E+01 -.784E+00 -.349E+04   0.241E+01 0.778E+00 0.349E+04   0.127E-01 -.103E-01 0.158E+01   -.175E-01 0.123E-01 -.253E-02
   -.215E+01 -.159E+01 -.349E+04   0.215E+01 0.161E+01 0.349E+04   0.106E-02 0.150E-01 0.158E+01   0.308E-02 -.151E-01 -.146E-02
   0.249E+01 0.108E+01 -.349E+04   -.250E+01 -.106E+01 0.349E+04   -.203E-01 0.429E-02 0.158E+01   0.924E-02 -.135E-01 -.953E-03
   0.363E+01 -.664E+01 -.347E+04   -.367E+01 0.670E+01 0.347E+04   0.398E-01 -.567E-01 0.173E+01   -.189E-02 0.380E-02 -.107E-01
   -.380E+01 0.638E+01 -.347E+04   0.384E+01 -.645E+01 0.347E+04   -.320E-01 0.615E-01 0.175E+01   -.336E-02 0.458E-03 -.104E-01
   0.499E+01 -.243E+01 -.349E+04   -.500E+01 0.243E+01 0.349E+04   -.614E-02 0.127E-01 0.158E+01   -.448E-04 0.246E-04 0.419E-02
   0.399E+00 0.580E+01 -.349E+04   -.397E+00 -.580E+01 0.349E+04   0.113E-01 -.137E-01 0.158E+01   -.580E-02 -.378E-02 0.396E-02
   0.697E+01 0.396E+01 -.348E+04   -.698E+01 -.397E+01 0.348E+04   -.291E-03 -.206E-02 0.156E+01   -.426E-03 0.299E-03 -.520E-03
   -.657E+01 -.394E+01 -.348E+04   0.659E+01 0.395E+01 0.348E+04   -.139E-01 -.768E-02 0.157E+01   -.310E-02 0.522E-02 0.172E-02
   0.178E+02 0.984E+01 -.282E+03   -.222E+02 -.123E+02 0.282E+03   0.441E+01 0.243E+01 0.428E-01   0.441E-04 0.118E-03 0.651E-03
   -.178E+02 -.986E+01 -.282E+03   0.222E+02 0.123E+02 0.282E+03   -.441E+01 -.243E+01 -.161E-01   -.119E-03 0.567E-04 0.659E-03
   0.727E-01 -.107E+00 0.174E+02   -.252E-12 -.888E-14 0.227E-11   -.111E+00 0.138E+00 -.168E+02   -.527E-02 0.144E-01 -.518E+00

 POSITION                                       TOTAL-FORCE (eV/Angst)
     12.88036      7.94921      6.92178         0.005143      0.001940      0.008984
      4.96242      7.94785      6.92378        -0.006536      0.003949      0.000541
      3.64145      5.66424      6.92359        -0.001000     -0.002595     -0.005307
     12.88772      7.94133      0.98786        -0.002095      0.001806      0.015643
      4.96828      7.94090      0.98788        -0.004300      0.002464      0.015576
      3.64811      5.65491      0.98789        -0.002377      0.003191      0.015236
      7.60345      1.84766      2.97612         0.003214     -0.002502     -0.023036
      8.92360      8.70642      2.97615         0.004138      0.006078     -0.028383
      2.32063      3.37823      6.92248         0.002884     -0.009224      0.002518
      2.32840      3.36855      0.98789        -0.007559      0.005140      0.016369
     10.24366      1.84749      2.97631         0.004178     -0.003743     -0.021394
     12.88188      4.90003      4.95067         0.002680     -0.004953      0.000166
      3.64194      1.08982      6.92247        -0.005916      0.005008      0.002705
      8.92370      5.66483      6.91108        -0.001903     -0.001912      0.009986
      4.96096      3.37704      6.92171        -0.006005     -0.004797     -0.001955
      3.64790      1.08225      0.98791        -0.002546     -0.000693      0.016241
      8.92836      5.65491      0.98749        -0.002738      0.003785      0.019815
      4.96868      3.36845      0.98773        -0.003034      0.004372      0.018450
     11.56329      8.70620      2.97600         0.005233     -0.000531     -0.015818
     11.56202      7.18508      4.95055         0.000524     -0.001130      0.000662
     12.88367      6.41974      2.97616         0.003285      0.001226     -0.016623
      8.92348      4.13384      2.97614         0.005795     -0.001685     -0.019929
      7.60176      7.95431      6.91944        -0.000229     -0.009607      0.002609
      7.60853      7.94123      0.98754        -0.005203      0.004897      0.018056
     10.24361      6.42012      2.97615         0.007761      0.001396     -0.024546
      2.32089      0.32699      4.94966         0.005043      0.002272      0.000078
      7.59819      3.37473      6.91803         0.005048      0.002664      0.004125
      7.60822      3.36882      0.98754        -0.006548     -0.001152      0.018484
      6.28202      1.09068      6.92351        -0.001655     -0.001659     -0.005257
      6.28821      1.08205      0.98764        -0.003188      0.004187      0.016000
     11.56394      4.13343      2.97611         0.008082     -0.002477     -0.028388
      3.64388      4.13378      2.97638         0.002712     -0.002259     -0.018141
      0.99964      1.08991      6.92286         0.005954      0.002283     -0.000558
      1.00799      1.08229      0.98797        -0.005038      0.001860      0.015409
      6.28378      8.70616      2.97613         0.001378      0.002312     -0.020759
      7.60023      4.89777      4.94761         0.004895      0.001906     -0.000393
      4.96354      1.84747      2.97629         0.002925     -0.000898     -0.017780
      2.32374      1.84771      2.97641         0.004461     -0.000955     -0.018004
     14.20288      7.18463      4.95047        -0.002429      0.003790      0.002124
     11.56026      5.66206      6.92305         0.004912      0.001474     -0.007664
      6.27774      5.66206      6.91797         0.006073      0.001154      0.004707
     11.56779      5.65497      0.98776        -0.002777      0.000849      0.016560
      6.28834      5.65490      0.98766        -0.007856      0.002161      0.018098
      7.60388      6.42003      2.97604         0.002965      0.001314     -0.019853
      6.28360      4.13381      2.97627        -0.001662     -0.004360     -0.027445
      3.64200      2.61241      4.95149        -0.000921     -0.001255     -0.007644
     10.24540      3.37526      6.91962        -0.007460      0.002448      0.001609
     10.24772      3.36878      0.98775         0.000123      0.000768      0.018038
     10.24029      0.32517      4.95127         0.004234      0.001196     -0.001096
      8.92281      7.18918      4.94667        -0.001516     -0.010567      0.006439
     10.24595      4.89740      4.94656        -0.008556      0.002135      0.007333
      6.28189      7.18620      4.94892         0.001426     -0.002227      0.003936
      4.96304      0.32544      4.95067        -0.001796      0.003119     -0.000657
      4.96387      6.41973      2.97634         0.002224      0.000077     -0.023778
      7.60199      0.32713      4.95037         0.003132     -0.005907      0.001614
      8.92014      1.09274      6.92373         0.001137     -0.009505      0.000682
     10.23959      7.94952      6.92285         0.004812      0.002066     -0.005934
      8.92813      1.08218      0.98802        -0.004573      0.003063      0.015307
     10.24773      7.94104      0.98727        -0.003912      0.003612      0.017929
      4.96034      4.89852      4.94903         0.003653     -0.001866      0.004602
[...]
     11.55715      4.14471      9.10361         0.010276     -0.020784     -0.003884
      8.91857      8.71508      9.10348        -0.013712      0.017165     -0.004519
     10.23744      1.85752      9.10243         0.006869     -0.008007     -0.007229
      2.31691      1.85690      9.10166         0.014158      0.006237      0.001205
     11.55740      8.71642      9.10145         0.014438     -0.004613     -0.002466
     12.87765      6.42942      9.10155         0.005294      0.017014     -0.001837
      4.95828      1.85719      9.10090        -0.019139      0.005241      0.000672
      7.59784      6.42972      9.08532        -0.000237      0.000022      0.007002
      8.91804      4.14311      9.08499        -0.001869     -0.002117      0.006863
      4.95840      6.42883      9.10472        -0.010379      0.014804     -0.006627
      7.59705      1.85814      9.10481         0.009328     -0.016562     -0.007051
      6.27809      4.14367      9.09904        -0.008327     -0.004297     -0.001835
     10.23784      6.42974      9.09910         0.002849      0.003798     -0.002100
      7.93863      5.07990     12.07043        -0.002351     -0.002316      0.029369
      8.59727      5.44337     12.07484         0.004150      0.001469      0.030139
    total drift:                               -0.043615      0.045317      0.019823

  FREE ENERGIE OF THE ION-ELECTRON SYSTEM (eV)
  free  energy   TOTEN  =      -365.86491922 eV

  energy  without entropy=     -365.79186201  energy(sigma->0) =     -365.84056682

 d Force = 0.7198811E-03[ 0.325E-03, 0.111E-02]  d Energy = 0.7357827E-03-0.159E-04
 d Force = 0.1023864E+01[ 0.102E+01, 0.103E+01]  d Ewald  = 0.1023869E+01-0.460E-05

 Conjugate gradient step on ions:
 trial-energy change:   -0.000736  1 .order   -0.000720   -0.001114   -0.000325
  (g-gl).g = 0.166E-02      g.g   = 0.160E-02  gl.gl    = 0.173E-02
 g(Force)  = 0.160E-02   g(Stress)= 0.000E+00 ortho     =-0.153E-03
 gamma     =   0.96190
 trial     =   0.76857
 opt step  =   1.08569  (harmonic =   1.08569) maximal distance =0.00517588
 next E    =  -365.864970   (d E  =  -0.00079)

 reached required accuracy - stopping structural energy minimisation