 vasp.5.4.4.18Apr17-6-g9f103f2a35 (build Nov 30 2020 22:55:02) complex

 executed on             LinuxIFC date 2023.07.30  15:49:07

 INCAR:
 POTCAR:    PAW_PBE Pt 04Feb2005
 POTCAR:    PAW_PBE H 15Jun2001
 POTCAR:    PAW_PBE Pt 04Feb2005
   VRHFIN =Pt: s1d9

   TITEL  = PAW_PBE Pt 04Feb2005
   POMASS =  195.080; ZVAL   =   10.000    mass and valenz
   ENMAX  =  230.283; ENMIN  =  172.712 eV

 POTCAR:    PAW_PBE H 15Jun2001
   VRHFIN =H: ultrasoft test

   TITEL  = PAW_PBE H 15Jun2001
   POMASS =    1.000; ZVAL   =    1.000    mass and valenz
   ENMAX  =  250.000; ENMIN  =  200.000 eV

 Optimization of the real space projectors (new method)

 maximal supplied QI-value         = 14.36
 optimisation between [QCUT,QGAM] = [ 11.92, 23.98] = [ 39.79,161.09] Ry
 Optimized for a Real-space Cutoff    1.49 Angstroem

   l    n(q)    QCUT    max X(q) W(low)/X(q) W(high)/X(q)  e(spline)
   2     10    11.920    66.195    0.79E-04    0.18E-03    0.24E-06
   2     10    11.920    64.643    0.81E-04    0.19E-03    0.24E-06
   0     11    11.920    95.520    0.28E-04    0.54E-04    0.18E-06
   0     11    11.920    63.403    0.27E-04    0.52E-04    0.17E-06
   1     10    11.920    19.961    0.18E-04    0.11E-03    0.23E-06
   1     10    11.920    13.289    0.25E-04    0.87E-04    0.19E-06
 Optimization of the real space projectors (new method)

 maximal supplied QI-value         = 34.20
 optimisation between [QCUT,QGAM] = [ 11.97, 23.94] = [ 40.13,160.53] Ry
 Optimized for a Real-space Cutoff    1.18 Angstroem

   l    n(q)    QCUT    max X(q) W(low)/X(q) W(high)/X(q)  e(spline)
   0      8    11.971    19.460    0.15E-03    0.31E-03    0.25E-06
   0      8    11.971    12.209    0.13E-03    0.29E-03    0.25E-06
   1      8    11.971     4.655    0.22E-03    0.24E-03    0.21E-06
  PAW_PBE Pt 04Feb2005                  :
  PAW_PBE H 15Jun2001                   :

 POSCAR: Pt111\(1\1\1)\(2)
  positions in direct lattice
  velocities in cartesian coordinates
 exchange correlation table for  LEXCH =        8
   RHO(1)=    0.500       N(1)  =     2000
   RHO(2)=  100.500       N(2)  =     4000

 ion  position               nearest neighbor table
   1  1.000  0.000  0.056-   5 2.64   9 2.64  13 2.64  29 2.64  57 2.64  37 2.64  42 2.87  14 2.87
                            54 2.87
   2  0.333  0.167  0.178-  30 2.64  26 2.64  38 2.64  42 2.64  14 2.64   6 2.64   7 2.84  15 2.84
                            11 2.84   9 2.87  21 2.87  13 2.87
   3  0.167  0.334  0.298-  39 2.64  43 2.64  31 2.64   7 2.64  27 2.64  15 2.64  10 2.84   6 2.84
                            14 2.85  12 2.86   8 2.87  48 2.89
   4  1.000  0.000  0.419-  16 2.64  12 2.64  60 2.64  40 2.64   8 2.64  32 2.64  27 2.86  63 2.87
                             7 2.87
   5  1.000  0.250  0.056-   1 2.64  45 2.64  33 2.64   9 2.64  29 2.64  25 2.64  14 2.87  10 2.87
                            18 2.87
   6  0.333  0.417  0.178-  26 2.64  62 2.64  10 2.64  34 2.64  14 2.64   2 2.64  15 2.84   3 2.84
                            43 2.85  45 2.87  49 2.87   9 2.87
   7  0.167  0.084  0.297-  35 2.64  11 2.64  15 2.64  63 2.64  27 2.64   3 2.64  14 2.84   2 2.84
                            42 2.84  12 2.86   4 2.87  16 2.90
   8  1.000  0.250  0.419-  36 2.64  48 2.64  12 2.64  28 2.64   4 2.64  32 2.64  27 2.87   3 2.87
                            31 2.87
   9  0.250  0.250  0.056-  21 2.64  13 2.64   1 2.64  49 2.64  45 2.64   5 2.64   2 2.87  14 2.87
                             6 2.87
  10  0.083  0.417  0.178-  34 2.64   6 2.64  46 2.64  14 2.64  18 2.64  22 2.64  31 2.84   3 2.84
                            39 2.84  33 2.87  45 2.87   5 2.87
  11  0.416  0.083  0.298-  15 2.64  35 2.64   7 2.64  47 2.64  19 2.64  23 2.64   2 2.84  38 2.84
                            30 2.85  20 2.86  24 2.88  16 2.90
  12  0.250  0.250  0.418-  16 2.64  52 2.64   4 2.64   8 2.64  24 2.64  48 2.64   3 2.86  15 2.86
                             7 2.86
  13  0.250  0.000  0.056-  21 2.64   9 2.64  17 2.64   1 2.64  37 2.64  41 2.64  38 2.87   2 2.87
                            42 2.87
  14  0.083  0.167  0.178-  42 2.64  54 2.64   6 2.64   2 2.64  10 2.64  18 2.64   7 2.84   3 2.85
                            27 2.85   5 2.87   1 2.87   9 2.87
  15  0.417  0.333  0.297-  11 2.64  19 2.64  55 2.64   7 2.64   3 2.64  43 2.65  26 2.84   2 2.84
                             6 2.84  52 2.86  12 2.86  24 2.88
  16  0.250  0.000  0.421-   4 2.64  12 2.64  24 2.64  40 2.64  20 2.64  44 2.64  35 2.89  11 2.90
                             7 2.90
  17  0.500  0.000  0.056-  29 2.64  25 2.64  13 2.64  21 2.64  41 2.64  53 2.64  58 2.87  30 2.87
                            38 2.87
  18  0.833  0.167  0.178-  54 2.64  58 2.64  22 2.64  10 2.64  30 2.64  14 2.64  31 2.84  23 2.85
                            27 2.85  25 2.87  29 2.87   5 2.87
  19  0.667  0.334  0.298-  15 2.64  59 2.64  55 2.64  31 2.64  11 2.64  23 2.64  26 2.84  22 2.84
                            30 2.85  28 2.86  24 2.88  64 2.89
  20  0.500  0.000  0.419-  24 2.64  28 2.64  44 2.64  32 2.64  56 2.64  16 2.64  23 2.86  11 2.86
                            47 2.87
  21  0.500  0.250  0.056-  25 2.64  61 2.64   9 2.64  13 2.64  49 2.64  17 2.64  30 2.87   2 2.87
                            26 2.87
  22  0.833  0.417  0.178-  50 2.64  26 2.64  30 2.64  18 2.64  46 2.64  10 2.64  31 2.84  19 2.84
                            59 2.85  61 2.87  25 2.87  33 2.87
  23  0.667  0.083  0.298-  51 2.64  27 2.64  31 2.64  47 2.64  19 2.64  11 2.64  18 2.85  58 2.85
                            30 2.85  28 2.86  20 2.86  32 2.90
  24  0.500  0.250  0.420-  28 2.64  20 2.64  64 2.64  16 2.64  12 2.64  52 2.64  15 2.88  19 2.88
                            11 2.88
  25  0.750  0.250  0.056-  17 2.64  21 2.64  29 2.64  61 2.64  33 2.64   5 2.64  18 2.87  22 2.87
                            30 2.87
  26  0.583  0.417  0.178-   6 2.64   2 2.64  22 2.64  30 2.64  62 2.64  50 2.64  55 2.84  15 2.84
                            19 2.84  49 2.87  61 2.87  21 2.87
  27  0.916  0.083  0.298-  23 2.64  51 2.64  63 2.64  31 2.64   7 2.64   3 2.64  18 2.85  54 2.85
                            14 2.85   4 2.86   8 2.87  32 2.90
  28  0.750  0.250  0.419-  24 2.64  20 2.64  36 2.64  32 2.64   8 2.64  64 2.64  23 2.86  19 2.86
                            31 2.87
  29  0.750  0.000  0.056-  17 2.64  25 2.64   5 2.64  53 2.64   1 2.64  57 2.64  54 2.87  18 2.87
                            58 2.87
  30  0.583  0.167  0.178-   2 2.64  38 2.64  58 2.64  26 2.64  22 2.64  18 2.64  11 2.85  19 2.85
                            23 2.85  21 2.87  17 2.87  25 2.87
  31  0.917  0.334  0.297-  39 2.64   3 2.64  19 2.64  59 2.64  27 2.64  23 2.64  22 2.84  10 2.84
                            18 2.84  36 2.87  28 2.87   8 2.87
  32  0.750  0.000  0.421-  20 2.64  28 2.64  60 2.64  56 2.64   8 2.64   4 2.64  23 2.90  51 2.90
                            27 2.90
  33  1.000  0.500  0.056-  37 2.64  41 2.64   5 2.64  45 2.64  25 2.64  61 2.64  10 2.87  46 2.87
                            22 2.87
  34  0.333  0.667  0.178-  62 2.64  10 2.64  58 2.64  46 2.64   6 2.64  38 2.64  47 2.84  43 2.84
                            39 2.84  41 2.87  45 2.87  53 2.87
  35  0.167  0.834  0.298-  11 2.64   7 2.64  47 2.64  63 2.64  59 2.64  39 2.64  42 2.84  38 2.85
                            46 2.85  44 2.86  40 2.87  16 2.89
  36  1.000  0.500  0.419-   8 2.64  48 2.64  28 2.64  40 2.64  64 2.64  44 2.64  59 2.86  39 2.87
                            31 2.87
  37  1.000  0.750  0.056-  33 2.64  41 2.64  61 2.64  57 2.64  13 2.64   1 2.64  46 2.87  50 2.87
                            42 2.87
  38  0.333  0.917  0.178-  58 2.64  30 2.64   2 2.64  42 2.64  34 2.64  46 2.64  47 2.84  11 2.84
                            35 2.85  13 2.87  17 2.87  41 2.87
  39  0.167  0.583  0.298-  43 2.64   3 2.64  31 2.64  47 2.64  59 2.64  35 2.64  46 2.84  34 2.84
                            10 2.84  36 2.87  44 2.87  48 2.89
  40  1.000  0.750  0.419-  36 2.64  44 2.64   4 2.64  64 2.64  16 2.64  60 2.64  35 2.87  59 2.87
                            63 2.87
  41  0.250  0.750  0.056-  45 2.64  33 2.64  37 2.64  53 2.64  17 2.64  13 2.64  34 2.87  46 2.87
                            38 2.87
  42  0.083  0.917  0.178-  14 2.64   2 2.64  38 2.64  46 2.64  50 2.64  54 2.64  63 2.84   7 2.84
                            35 2.84   1 2.87  13 2.87  37 2.87
  43  0.416  0.584  0.298-  39 2.64   3 2.64  47 2.64  51 2.64  55 2.64  15 2.65  34 2.84   6 2.85
                            62 2.85  52 2.86  56 2.87  48 2.90
  44  0.250  0.750  0.419-  56 2.64  48 2.64  40 2.64  20 2.64  16 2.64  36 2.64  35 2.86  39 2.87
                            47 2.87
  45  0.250  0.500  0.056-  41 2.64  53 2.64   5 2.64   9 2.64  49 2.64  33 2.64   6 2.87  10 2.87
                            34 2.87
  46  0.083  0.667  0.178-  34 2.64  50 2.64  10 2.64  42 2.64  22 2.64  38 2.64  39 2.84  59 2.85
                            35 2.85  37 2.87  33 2.87  41 2.87
  47  0.416  0.833  0.297-  43 2.64  39 2.64  11 2.64  35 2.64  51 2.64  23 2.64  38 2.84  34 2.84
                            58 2.84  44 2.87  20 2.87  56 2.88
  48  0.250  0.500  0.421-  56 2.64   8 2.64  44 2.64  36 2.64  52 2.64  12 2.64  39 2.89   3 2.89
                            43 2.90
  49  0.500  0.500  0.056-  61 2.64  53 2.64  57 2.64  21 2.64   9 2.64  45 2.64  26 2.87   6 2.87
                            62 2.87
  50  0.833  0.667  0.178-  22 2.64  46 2.64  26 2.64  42 2.64  54 2.64  62 2.64  55 2.84  63 2.84
                            59 2.84  57 2.87  61 2.87  37 2.87
  51  0.667  0.834  0.298-  23 2.64  27 2.64  63 2.64  47 2.64  55 2.64  43 2.64  58 2.85  54 2.85
                            62 2.85  60 2.86  56 2.87  32 2.90
  52  0.500  0.500  0.418-  64 2.64  12 2.64  60 2.64  56 2.64  48 2.64  24 2.64  43 2.86  15 2.86
                            55 2.86
  53  0.500  0.750  0.056-  49 2.64  57 2.64  45 2.64  41 2.64  29 2.64  17 2.64  62 2.87  34 2.87
                            58 2.87
  54  0.833  0.917  0.178-  18 2.64  14 2.64  50 2.64  58 2.64  42 2.64  62 2.64  63 2.84  51 2.85
                            27 2.85  29 2.87   1 2.87  57 2.87
  55  0.667  0.583  0.297-  59 2.64  15 2.64  19 2.64  63 2.64  51 2.64  43 2.64  62 2.84  26 2.84
                            50 2.84  52 2.86  60 2.87  64 2.90
  56  0.500  0.750  0.419-  44 2.64  48 2.64  52 2.64  20 2.64  60 2.64  32 2.64  51 2.87  43 2.87
                            47 2.88
  57  0.750  0.750  0.056-  61 2.64  49 2.64  53 2.64  37 2.64   1 2.64  29 2.64  50 2.87  62 2.87
                            54 2.87
  58  0.583  0.917  0.178-  38 2.64  30 2.64  18 2.64  34 2.64  62 2.64  54 2.64  47 2.84  51 2.85
                            23 2.85  17 2.87  29 2.87  53 2.87
  59  0.916  0.583  0.298-  19 2.64  55 2.64  31 2.64  63 2.64  35 2.64  39 2.64  50 2.84  22 2.85
                            46 2.85  36 2.86  40 2.87  64 2.89
  60  0.750  0.750  0.419-  64 2.64  52 2.64   4 2.64  32 2.64  40 2.64  56 2.64  51 2.86  63 2.87
                            55 2.87
  61  0.750  0.500  0.056-  49 2.64  57 2.64  21 2.64  25 2.64  37 2.64  33 2.64  22 2.87  26 2.87
[...]
 IVDW         = 11
 DF pbe
 parameters
 VDW_S6       =    1.0000
 VDW_S8       =    0.7220
 VDW_SR       =    1.2170
 rs18     =    1.0000
 alpha6   =   14.0000
 alpha8   =   16.0000
 k1-k3    =   16.0000    1.3333   -4.0000
 VDW_RADIUS   =   50.2022 A
 VDW_CNRADIUS =   21.1671 A
 Edisp (eV)  -38.78645

 E6    (eV) :   -14.3151
 E8    (eV) :   -24.4714
 % E8        : 63.09

  FORCE on cell =-STRESS in cart. coord.  units (eV):
  Direction    XX          YY          ZZ          XY          YZ          ZX
  Alpha Z  2023.78361  2023.78361  2023.78361
  Ewald  162033.92996162044.78799************    -7.87582    -3.62321     2.51153
  Hartree172967.07232172968.02479************    -1.16429    -0.54989     0.45584
  E(xc)   -2862.08350 -2861.95260 -2887.64156    -0.08858    -0.04123     0.02716
  Local  ************************357112.48349     5.97451     2.76638    -2.04509
  n-local   572.89329   572.12389   307.75312     0.24590     0.11549    -0.04159
  augment  3252.85359  3253.00494  3534.37566     0.14862     0.14072    -0.17408
  Kinetic  9169.98551  9165.77881  9763.93355     2.83495     1.23039    -0.77403
  Fock        0.00000     0.00000     0.00000     0.00000     0.00000     0.00000
  vdW       -53.65664   -53.60890   -29.09552     0.00699    -0.01075     0.00551
  Total      82.06870    82.16839    -0.86739     0.08228     0.02791    -0.03476
  in kB      68.07688    68.15957    -0.71951     0.06825     0.02315    -0.02884

 VOLUME and BASIS-vectors are now :
  energy-cutoff  :      550.00
  volume of cell :     1931.47
      direct lattice vectors                 reciprocal lattice vectors
    10.560000420  0.000000000  0.000000000     0.094696966  0.054673319  0.000000000
    -5.280000210  9.145228627  0.000000000     0.000000000  0.109346638  0.000000000
     0.000000000  0.000000000 20.000000000     0.000000000  0.000000000  0.050000000

  length of vectors
    10.560000420 10.560000420 20.000000000     0.109346638  0.109346638  0.050000000

 FORCES acting on ions
    electron-ion (+dipol)            ewald-force                    non-local-force                 convergence-correction
   0.176E+00 0.659E-01 0.231E+04   -.174E+00 -.721E-01 -.231E+04   -.913E-03 0.154E-02 -.941E-01   0.142E-02 0.239E-02 0.663E-02
   -.362E+00 0.472E+00 0.784E+03   0.367E+00 -.478E+00 -.783E+03   0.101E-02 0.218E-03 -.422E+00   0.136E-02 -.870E-03 0.654E-02
   0.163E+01 -.228E+00 -.770E+03   -.165E+01 0.246E+00 0.769E+03   0.282E-01 -.264E-01 0.395E+00   -.114E-02 0.124E-02 0.156E-02
   0.166E+01 0.415E+01 -.230E+04   -.167E+01 -.414E+01 0.230E+04   0.827E-03 -.162E-01 0.723E-01   -.392E-02 0.180E-02 -.477E-03
   0.168E+00 0.162E+00 0.231E+04   -.168E+00 -.161E+00 -.231E+04   0.778E-03 -.107E-02 -.108E+00   -.996E-03 0.508E-03 0.438E-02
   0.320E+00 -.159E+00 0.783E+03   -.332E+00 0.164E+00 -.783E+03   0.420E-02 -.120E-02 -.389E+00   0.197E-02 -.285E-03 0.738E-02
   -.411E+00 0.265E+01 -.768E+03   0.417E+00 -.267E+01 0.768E+03   -.530E-02 0.778E-02 0.435E+00   -.518E-03 -.127E-02 -.274E-02
   0.558E+01 0.191E+01 -.230E+04   -.559E+01 -.192E+01 0.230E+04   -.968E-02 -.756E-02 0.938E-01   0.513E-03 -.420E-03 -.177E-03
   0.122E+00 0.119E+00 0.231E+04   -.113E+00 -.113E+00 -.231E+04   -.823E-02 -.589E-02 -.125E+00   0.309E-02 0.131E-02 0.545E-02
   0.855E-01 0.170E+00 0.783E+03   -.770E-01 -.174E+00 -.783E+03   0.265E-02 0.244E-02 -.406E+00   -.109E-02 0.221E-02 0.963E-02
   -.412E+00 0.125E+01 -.772E+03   0.412E+00 -.126E+01 0.772E+03   -.141E-02 0.238E-01 0.423E+00   0.226E-02 -.204E-02 -.418E-02
   0.436E+01 0.720E+01 -.228E+04   -.438E+01 -.726E+01 0.228E+04   0.198E-01 0.444E-01 0.244E+00   -.262E-02 0.423E-02 -.699E-03
   -.368E-01 0.138E+00 0.231E+04   0.356E-01 -.140E+00 -.231E+04   -.137E-02 -.897E-03 -.112E+00   0.279E-02 0.323E-02 0.762E-02
   0.116E+01 0.389E+00 0.782E+03   -.117E+01 -.392E+00 -.782E+03   -.704E-02 0.306E-02 -.345E+00   0.242E-02 -.752E-03 0.865E-02
   -.620E+00 0.429E+00 -.765E+03   0.645E+00 -.442E+00 0.765E+03   -.544E-01 0.280E-01 0.346E+00   -.179E-03 0.144E-02 -.107E-02
   -.719E+00 0.651E+01 -.231E+04   0.725E+00 -.650E+01 0.231E+04   0.900E-02 -.253E-01 0.120E+00   -.989E-03 0.492E-03 -.875E-03
   -.163E+00 -.331E-02 0.231E+04   0.164E+00 -.397E-02 -.231E+04   -.192E-02 0.201E-02 -.977E-01   -.253E-03 0.348E-02 0.558E-02
   0.565E-01 0.111E+01 0.782E+03   -.513E-01 -.113E+01 -.782E+03   -.560E-03 -.716E-04 -.382E+00   -.232E-02 0.323E-03 0.930E-02
   -.125E+01 -.180E+00 -.772E+03   0.126E+01 0.186E+00 0.772E+03   -.219E-01 -.104E-01 0.422E+00   0.157E-02 -.435E-03 -.334E-02
   -.142E+01 0.229E+01 -.230E+04   0.141E+01 -.226E+01 0.230E+04   0.317E-02 -.435E-01 0.608E-01   0.525E-02 -.232E-02 -.174E-02
   -.205E+00 0.128E+00 0.231E+04   0.192E+00 -.120E+00 -.231E+04   0.848E-02 -.496E-02 -.122E+00   0.636E-03 -.629E-03 0.598E-02
   0.134E+00 -.171E-02 0.783E+03   -.132E+00 0.497E-02 -.783E+03   -.789E-02 0.104E-03 -.382E+00   -.157E-02 0.197E-02 0.884E-02
   -.138E+01 0.843E+00 -.774E+03   0.140E+01 -.856E+00 0.774E+03   -.277E-01 0.166E-01 0.376E+00   0.112E-02 -.223E-02 -.391E-04
   -.707E+01 0.398E+01 -.229E+04   0.711E+01 -.400E+01 0.229E+04   -.426E-01 0.233E-01 0.101E+00   -.166E-02 0.218E-02 -.133E-02
   -.822E-01 0.149E+00 0.231E+04   0.888E-01 -.146E+00 -.231E+04   -.283E-02 0.852E-03 -.977E-01   -.273E-02 -.162E-02 0.500E-02
   -.565E+00 0.151E+00 0.784E+03   0.572E+00 -.153E+00 -.783E+03   0.878E-03 -.833E-03 -.423E+00   0.696E-03 -.280E-03 0.709E-02
   0.235E+01 0.933E+00 -.775E+03   -.238E+01 -.940E+00 0.775E+03   0.166E-01 0.156E-01 0.371E+00   -.285E-02 -.138E-02 0.132E-02
   -.275E+01 -.395E-01 -.230E+04   0.273E+01 0.311E-01 0.230E+04   0.370E-01 0.208E-01 0.638E-01   0.381E-02 -.269E-02 -.101E-02
   0.292E-01 -.205E-01 0.231E+04   -.251E-01 0.172E-01 -.231E+04   0.437E-03 -.163E-03 -.137E+00   -.395E-02 0.274E-02 0.466E-02
   -.782E+00 0.491E+00 0.782E+03   0.787E+00 -.493E+00 -.782E+03   0.114E-02 -.391E-03 -.333E+00   -.146E-02 0.424E-04 0.698E-02
   0.582E+00 0.111E+01 -.768E+03   -.593E+00 -.111E+01 0.767E+03   0.273E-02 -.196E-01 0.380E+00   -.254E-03 -.391E-03 -.244E-03
   0.253E+00 -.332E+00 -.232E+04   -.255E+00 0.332E+00 0.232E+04   0.429E-02 0.160E-02 0.161E+00   -.315E-03 -.786E-03 -.952E-03
   0.665E-01 -.477E-02 0.231E+04   -.591E-01 -.299E-02 -.231E+04   -.357E-02 0.534E-02 -.891E-01   -.890E-03 -.203E-02 0.688E-02
   -.692E-01 -.184E+00 0.783E+03   0.762E-01 0.177E+00 -.783E+03   -.985E-03 -.262E-02 -.407E+00   -.174E-02 0.970E-03 0.109E-01
   0.593E+00 -.286E+00 -.774E+03   -.600E+00 0.295E+00 0.774E+03   -.700E-02 -.113E-01 0.374E+00   0.104E-02 -.204E-02 -.552E-02
   0.219E+01 -.111E+01 -.230E+04   -.220E+01 0.112E+01 0.230E+04   -.394E-02 0.104E-01 0.666E-01   0.317E-02 -.154E-02 -.110E-02
   -.136E-01 -.145E-02 0.231E+04   0.352E-02 0.678E-02 -.231E+04   0.443E-02 -.234E-02 -.940E-01   0.127E-02 -.406E-03 0.952E-02
   0.110E+00 -.154E+00 0.783E+03   -.114E+00 0.151E+00 -.783E+03   -.451E-02 0.809E-02 -.380E+00   -.183E-02 0.486E-04 0.950E-02
   0.741E+00 -.443E+00 -.772E+03   -.739E+00 0.442E+00 0.771E+03   -.138E-01 0.739E-02 0.407E+00   -.148E-03 0.162E-02 -.144E-02
   -.219E+00 0.248E+00 -.230E+04   0.234E+00 -.253E+00 0.230E+04   -.232E-01 0.116E-01 0.915E-01   -.103E-02 -.575E-03 -.941E-03
   0.415E-01 -.628E-01 0.231E+04   -.307E-01 0.593E-01 -.231E+04   -.658E-02 0.905E-03 -.890E-01   0.873E-03 0.190E-02 0.739E-02
   -.820E-01 0.416E+00 0.783E+03   0.875E-01 -.419E+00 -.783E+03   -.934E-03 0.854E-02 -.393E+00   0.222E-02 -.248E-02 0.103E-01
   0.940E+00 -.128E+01 -.770E+03   -.967E+00 0.129E+01 0.769E+03   0.447E-01 -.183E-01 0.401E+00   -.396E-03 0.266E-02 0.170E-02
   0.222E+01 -.127E+01 -.230E+04   -.223E+01 0.128E+01 0.230E+04   -.146E-01 0.848E-03 0.617E-01   0.376E-02 -.268E-02 -.180E-02
   0.113E+00 -.608E-01 0.231E+04   -.118E+00 0.640E-01 -.231E+04   0.715E-03 -.236E-03 -.127E+00   0.182E-02 -.149E-02 0.532E-02
   0.349E+00 -.241E+00 0.782E+03   -.350E+00 0.240E+00 -.782E+03   0.782E-03 -.255E-04 -.321E+00   -.201E-02 0.191E-02 0.113E-01
   -.669E+00 -.109E+01 -.768E+03   0.664E+00 0.110E+01 0.767E+03   0.189E-01 0.816E-02 0.382E+00   0.145E-02 -.246E-03 -.975E-03
   0.790E+01 -.424E+01 -.230E+04   -.792E+01 0.425E+01 0.230E+04   0.166E-01 -.145E-01 0.149E+00   0.257E-02 -.453E-03 -.955E-03
   -.333E-01 -.158E+00 0.231E+04   0.329E-01 0.146E+00 -.231E+04   0.927E-03 0.105E-01 -.123E+00   0.203E-03 -.387E-02 0.579E-02
   -.462E+00 -.209E+00 0.783E+03   0.468E+00 0.205E+00 -.783E+03   -.625E-02 -.282E-02 -.394E+00   0.251E-02 -.285E-03 0.109E-01
   0.483E+00 -.246E+01 -.775E+03   -.489E+00 0.249E+01 0.775E+03   -.833E-02 -.242E-01 0.371E+00   -.162E-02 0.957E-03 0.139E-02
   -.439E+01 -.718E+01 -.228E+04   0.441E+01 0.723E+01 0.228E+04   -.152E-01 -.458E-01 0.221E+00   -.392E-02 0.183E-02 -.133E-02
   -.494E-01 -.232E+00 0.231E+04   0.493E-01 0.231E+00 -.231E+04   0.132E-02 0.139E-03 -.108E+00   -.113E-02 0.703E-03 0.526E-02
   0.104E+01 -.622E+00 0.782E+03   -.105E+01 0.628E+00 -.782E+03   -.942E-02 0.607E-02 -.368E+00   0.166E-02 -.184E-02 0.118E-01
   -.247E+01 -.103E+01 -.768E+03   0.249E+01 0.104E+01 0.767E+03   -.635E-02 0.274E-02 0.435E+00   -.639E-03 0.195E-02 -.180E-02
   0.108E+01 -.592E+01 -.230E+04   -.108E+01 0.593E+01 0.230E+04   0.483E-02 0.130E-01 0.790E-01   0.174E-02 -.932E-03 -.158E-02
   0.276E-01 -.198E+00 0.231E+04   -.224E-01 0.199E+00 -.231E+04   -.159E-02 0.267E-03 -.936E-01   -.102E-02 -.196E-02 0.699E-02
   -.929E+00 -.618E+00 0.782E+03   0.945E+00 0.622E+00 -.782E+03   0.200E-03 0.157E-02 -.382E+00   -.205E-02 0.660E-03 0.106E-01
   0.558E+00 -.492E+00 -.774E+03   -.566E+00 0.493E+00 0.774E+03   0.214E-02 0.160E-01 0.374E+00   0.119E-02 0.101E-02 -.471E-02
   -.298E+01 -.339E+01 -.230E+04   0.297E+01 0.340E+01 0.230E+04   0.194E-01 0.100E-02 0.713E-01   -.446E-02 0.761E-03 -.113E-02
   -.143E+00 -.354E-01 0.231E+04   0.144E+00 0.374E-01 -.231E+04   0.503E-03 0.180E-02 -.113E+00   -.114E-02 -.426E-02 0.741E-02
   0.290E+00 -.126E+01 0.782E+03   -.292E+00 0.127E+01 -.782E+03   -.665E-02 0.574E-02 -.345E+00   0.124E-02 -.133E-02 0.106E-01
   -.633E+00 0.333E+00 -.768E+03   0.638E+00 -.335E+00 0.768E+03   0.153E-01 -.688E-02 0.362E+00   -.877E-03 -.842E-03 -.341E-02
   -.605E+01 -.261E+01 -.231E+04   0.604E+01 0.260E+01 0.231E+04   0.301E-01 0.394E-02 0.132E+00   -.184E-02 0.109E-02 -.812E-03
   0.814E+01 -.184E+02 -.200E+03   -.101E+02 0.228E+02 0.200E+03   0.201E+01 -.454E+01 0.743E+00   -.161E-03 0.267E-03 -.151E-02
   -.816E+01 0.184E+02 -.200E+03   0.101E+02 -.229E+02 0.200E+03   -.201E+01 0.454E+01 -.750E+00   -.292E-05 -.123E-03 -.144E-02
   -.125E-01 0.658E-02 -.438E+00   0.169E-12 0.917E-12 0.296E-11   -.234E-01 0.212E-01 0.231E+00   -.113E-03 0.128E-03 0.207E+00

 POSITION                                       TOTAL-FORCE (eV/Angst)
     10.55998      0.00001      1.11585         0.002900     -0.002653     -0.006423
      2.63997      1.52422      3.55048         0.006784     -0.006014     -0.002349
     -0.00277      3.05248      5.95206         0.009518     -0.008125     -0.003735
     10.55664      0.00295      8.37578        -0.010796     -0.002992      0.008007
      9.23998      2.28632      1.11585         0.000242     -0.000045     -0.004730
      1.31997      3.81053      3.55048        -0.005542      0.002840     -0.004277
      1.31901      0.76397      5.94672         0.001554     -0.018517      0.019980
      9.23611      2.29005      8.38345        -0.014360     -0.013852      0.005601
      1.31998      2.28632      1.11585         0.005011      0.000843     -0.005812
     -1.32003      3.81053      3.55048         0.010025     -0.000414      0.002684
      3.95784      0.76259      5.95211         0.001971      0.006046      0.017767
      1.31648      2.28943      8.36727        -0.004227     -0.004298      0.007460
      2.63998      0.00001      1.11585         0.000750     -0.000789     -0.014654
     -0.00003      1.52422      3.55048        -0.013144     -0.000685     -0.011213
      2.64198      3.04802      5.94821        -0.029065      0.015613     -0.007825
      2.63530      0.00397      8.41360         0.013348     -0.010228     -0.016247
      5.27998      0.00001      1.11585        -0.000539     -0.002236     -0.006348
      7.91997      1.52422      3.55048         0.002844     -0.015425      0.029442
      5.27917      3.05079      5.95186        -0.006692     -0.005958      0.018601
      5.27597      0.00395      8.37757         0.001628     -0.019944      0.001318
      3.95998      2.28632      1.11585        -0.003303      0.001697     -0.008583
      6.59997      3.81053      3.55048        -0.006503      0.004045     -0.003096
      6.60100      0.76212      5.95626        -0.001952      0.000891     -0.005726
      3.95762      2.28869      8.39202        -0.013661      0.004679     -0.024958
      6.59998      2.28632      1.11585         0.001525      0.001418     -0.006287
      3.95997      3.81053      3.55048         0.007964     -0.004181     -0.004435
      9.23634      0.76328      5.95847        -0.010844      0.006963     -0.012137
      6.59535      2.28890      8.37744         0.015926      0.009217      0.001317
      7.91998      0.00001      1.11585         0.001135     -0.001119     -0.016875
      5.27997      1.52422      3.55048         0.005207     -0.003171      0.001704
      7.91845      3.05140      5.94563        -0.007608     -0.021759      0.009455
      7.91592      0.00290      8.42715         0.002500      0.000222     -0.017411
      7.91998      4.57263      1.11585         0.003473     -0.004860     -0.004567
     -0.00003      6.09683      3.55048         0.005129     -0.008418      0.002394
     -2.64266      7.62441      5.95363        -0.011808     -0.004304     -0.000260
      7.91570      4.57464      8.37769        -0.005566      0.012713      0.000198
      6.59998      6.85894      1.11585        -0.003832      0.002164      0.001949
     -1.32003      8.38314      3.55048        -0.008283      0.004755     -0.002136
     -1.32105      5.33579      5.95054        -0.011236      0.006673      0.012258
      6.59683      6.86141      8.38322        -0.008863      0.004778      0.003241
     -1.32002      6.85894      1.11585         0.005645     -0.001146     -0.003963
     -3.96003      8.38314      3.55048         0.006637      0.003577      0.006182
      1.31509      5.33660      5.95189         0.018112     -0.007224     -0.001591
     -1.32318      6.86239      8.37770        -0.015813      0.002323     -0.000668
     -0.00002      4.57263      1.11585        -0.002307      0.001094     -0.016518
     -2.64003      6.09683      3.55048        -0.001555      0.000755     -0.001615
     -0.00316      7.62191      5.94550         0.016075      0.018998      0.011926
     -0.00494      4.57606      8.41364         0.004007     -0.002919     -0.011570
      2.63998      4.57263      1.11585         0.001347     -0.005195     -0.006092
      5.27997      6.09683      3.55048         0.002294     -0.006640      0.003418
      2.63763      7.62475      5.95867        -0.015127      0.004023     -0.011498
      2.63588      4.57538      8.36700         0.003437      0.003617      0.007311
      1.31998      6.85894      1.11585         0.000651     -0.000919     -0.005171
      3.95997      8.38314      3.55048        -0.017092      0.010464      0.027406
      3.95811      5.33544      5.94591         0.017094      0.010663      0.021849
      1.31503      6.86148      8.38497         0.007528      0.019914      0.003075
      3.95998      6.85894      1.11585         0.003178     -0.001420     -0.005999
      1.31997      8.38314      3.55048         0.015014      0.005365      0.030418
      6.59635      5.33573      5.95349        -0.003805      0.017081     -0.000512
      3.95603      6.86172      8.37538         0.000008      0.008172      0.007967
      5.27998      4.57263      1.11585         0.000874     -0.000871     -0.014166
      2.63997      6.09683      3.55048        -0.006705      0.012367     -0.010809
      5.27675      7.62330      5.94663         0.019453     -0.010252     -0.000741
      5.27436      4.57594      8.41248         0.019074     -0.005607     -0.017379
      1.84784      3.76325     11.35577         0.006503     -0.018508      0.015418
      2.14895      3.08223     11.46819        -0.006138      0.016716      0.020031
    total drift:                               -0.036057      0.027860      0.000135

  FREE ENERGIE OF THE ION-ELECTRON SYSTEM (eV)
  free  energy   TOTEN  =      -411.95035009 eV

  energy  without entropy=     -411.92931254  energy(sigma->0) =     -411.94333757

 reached required accuracy - stopping structural energy minimisation