 vasp.5.4.4.18Apr17-6-g9f103f2a35 (build Nov 30 2020 22:55:02) complex

 executed on             LinuxIFC date 2023.06.13  08:51:50

 INCAR:
 POTCAR:    PAW_PBE Pt 04Feb2005
 POTCAR:    PAW_PBE H 15Jun2001
 POTCAR:    PAW_PBE Pt 04Feb2005
   VRHFIN =Pt: s1d9

   TITEL  = PAW_PBE Pt 04Feb2005
   POMASS =  195.080; ZVAL   =   10.000    mass and valenz
   ENMAX  =  230.283; ENMIN  =  172.712 eV

 POTCAR:    PAW_PBE H 15Jun2001
   VRHFIN =H: ultrasoft test

   TITEL  = PAW_PBE H 15Jun2001
   POMASS =    1.000; ZVAL   =    1.000    mass and valenz
   ENMAX  =  250.000; ENMIN  =  200.000 eV

 Optimization of the real space projectors (new method)

 maximal supplied QI-value         = 14.36
 optimisation between [QCUT,QGAM] = [ 11.92, 23.98] = [ 39.79,161.09] Ry
 Optimized for a Real-space Cutoff    1.49 Angstroem

   l    n(q)    QCUT    max X(q) W(low)/X(q) W(high)/X(q)  e(spline)
   2     10    11.920    66.195    0.79E-04    0.18E-03    0.24E-06
   2     10    11.920    64.643    0.81E-04    0.19E-03    0.24E-06
   0     11    11.920    95.520    0.28E-04    0.54E-04    0.18E-06
   0     11    11.920    63.403    0.27E-04    0.52E-04    0.17E-06
   1     10    11.920    19.961    0.18E-04    0.11E-03    0.23E-06
   1     10    11.920    13.289    0.25E-04    0.87E-04    0.19E-06
 Optimization of the real space projectors (new method)

 maximal supplied QI-value         = 34.20
 optimisation between [QCUT,QGAM] = [ 11.97, 23.94] = [ 40.13,160.53] Ry
 Optimized for a Real-space Cutoff    1.18 Angstroem

   l    n(q)    QCUT    max X(q) W(low)/X(q) W(high)/X(q)  e(spline)
   0      8    11.971    19.460    0.15E-03    0.31E-03    0.25E-06
   0      8    11.971    12.209    0.13E-03    0.29E-03    0.25E-06
   1      8    11.971     4.655    0.22E-03    0.24E-03    0.21E-06
  PAW_PBE Pt 04Feb2005                  :
  PAW_PBE H 15Jun2001                   :

 POSCAR: Pt111
  positions in direct lattice
  velocities in cartesian coordinates
 exchange correlation table for  LEXCH =        8
   RHO(1)=    0.500       N(1)  =     2000
   RHO(2)=  100.500       N(2)  =     4000

 ion  position               nearest neighbor table
   1  0.785  0.869  0.327-  71 2.74  20 2.74  55 2.74  35 2.79  27 2.79  34 2.80  43 2.81  73 2.81
                            56 2.81  72 2.81   2 2.81   3 2.81
   2  0.035  0.869  0.327-  65 2.74  55 2.74  68 2.74  39 2.78  29 2.79  27 2.80  23 2.80  47 2.81
                            72 2.81   3 2.81   1 2.81  57 2.81
   3  0.035  0.619  0.327-  12 2.74  55 2.74  76 2.74  39 2.78  28 2.79  35 2.80  15 2.80   9 2.81
                            56 2.81   2 2.81   1 2.81  57 2.81
   4  0.786  0.868  0.023-  21 2.79  78 2.79  19 2.80  44 2.80  75 2.81  74 2.81  58 2.81   5 2.81
                             6 2.81
   5  0.036  0.868  0.023-  49 2.79  70 2.79  78 2.79  48 2.80   6 2.80  24 2.81  59 2.81   4 2.81
                            74 2.81
   6  0.036  0.618  0.023-  46 2.79  70 2.79  21 2.79  10 2.80   5 2.80  18 2.81  59 2.81   4 2.81
                            58 2.81
   7  0.619  0.202  0.126-  71 2.74  79 2.74  80 2.74  42 2.79  44 2.79  74 2.80  53 2.80  61 2.80
                            11 2.80  22 2.80  19 2.81  78 2.81
   8  0.369  0.952  0.126-  26 2.74  66 2.74  69 2.74  16 2.79  24 2.79  75 2.79  25 2.80  60 2.81
                            19 2.81  49 2.81  54 2.81  53 2.81
   9  0.035  0.369  0.327-  12 2.73  77 2.74  62 2.74  28 2.79  33 2.79  30 2.79  13 2.80   3 2.81
                            47 2.81  56 2.81  15 2.81  63 2.81
  10  0.036  0.369  0.023-  54 2.78  46 2.79  45 2.80  58 2.80   6 2.80  18 2.81  64 2.81  16 2.81
                            48 2.81
  11  0.869  0.202  0.126-  77 2.74  65 2.74  79 2.74  64 2.79  74 2.79  48 2.79   7 2.80  22 2.81
                            78 2.81  45 2.81  54 2.81  49 2.81
  12  0.952  0.536  0.226-   9 2.73   3 2.74  21 2.74  45 2.74  56 2.74  46 2.74  20 2.80  55 2.80
                            77 2.81  62 2.81  67 2.81  76 2.81
  13  0.285  0.119  0.327-  62 2.74  26 2.74  69 2.74  31 2.79  36 2.79  33 2.79   9 2.80  47 2.80
                            73 2.81  43 2.81  15 2.81  23 2.81
  14  0.535  0.619  0.328-  51 2.74  66 2.75  67 2.76  52 2.79  57 2.80  41 2.80  63 2.80  23 2.80
                            56 2.81  73 2.81  38 2.82  37 2.82
  15  0.285  0.369  0.327-  76 2.74  80 2.74  62 2.75  50 2.79  36 2.79  28 2.79  41 2.80  57 2.80
                             3 2.80  43 2.81  13 2.81   9 2.81
  16  0.287  0.118  0.023-  54 2.79   8 2.79  53 2.79  75 2.80  44 2.80  24 2.81  18 2.81  10 2.81
                            48 2.81
  17  0.536  0.618  0.023-  25 2.79  22 2.79  60 2.80  42 2.80  64 2.80  59 2.80  58 2.81  75 2.81
                            24 2.81
  18  0.286  0.368  0.023-  53 2.79  46 2.79  61 2.79  59 2.80  42 2.81   6 2.81  44 2.81  10 2.81
                            16 2.81
  19  0.619  0.952  0.126-  20 2.74  71 2.74  69 2.74  44 2.79  75 2.79   4 2.80  21 2.80  78 2.80
                             8 2.81  53 2.81  25 2.81   7 2.81
  20  0.702  0.785  0.226-  25 2.74  56 2.74  19 2.74   1 2.74  73 2.74  21 2.74  12 2.80  69 2.81
                            67 2.81  66 2.81  55 2.81  71 2.81
  21  0.869  0.702  0.126-  12 2.74  55 2.74  20 2.74  58 2.79   4 2.79   6 2.79  78 2.80  19 2.80
                            46 2.81  45 2.81  70 2.81  25 2.81
  22  0.619  0.452  0.126-  79 2.74  67 2.74  51 2.75  17 2.79  42 2.79  64 2.80  61 2.80  60 2.80
                             7 2.80  25 2.80  11 2.81  45 2.81
  23  0.285  0.869  0.327-  68 2.74  66 2.74  26 2.75  37 2.79  31 2.79  29 2.79  57 2.80  14 2.80
                             2 2.80  73 2.81  47 2.81  13 2.81
  24  0.286  0.868  0.023-   8 2.79  60 2.79  49 2.79  59 2.80   5 2.81  17 2.81  48 2.81  75 2.81
                            16 2.81
  25  0.619  0.702  0.126-  20 2.74  67 2.74  66 2.74  17 2.79  75 2.79  58 2.80   8 2.80  45 2.80
                            60 2.80  22 2.80  19 2.81  21 2.81
  26  0.202  0.036  0.226-  49 2.74  13 2.74   8 2.74  54 2.74  47 2.74  23 2.75  62 2.80  77 2.80
                            69 2.81  65 2.81  66 2.81  68 2.81
  27  0.868  0.953  0.430-  39 2.78  40 2.78   1 2.79  72 2.79   2 2.80  29 2.80  32 2.80  35 2.81
                            34 2.81
  28  0.117  0.453  0.430-  50 2.77   9 2.79  30 2.79   3 2.79  15 2.79  33 2.80  35 2.80  39 2.81
                            36 2.81
  29  0.117  0.954  0.430-  37 2.77  47 2.79  32 2.79   2 2.79  23 2.79  33 2.80  27 2.80  39 2.81
                            31 2.81
  30  0.869  0.453  0.430-  38 2.77  28 2.79  56 2.79  63 2.79   9 2.79  33 2.80  35 2.80  52 2.81
                            32 2.81
  31  0.368  0.953  0.430-  37 2.77  13 2.79  36 2.79  23 2.79  73 2.80  34 2.80  33 2.80  52 2.81
                            29 2.81
  32  0.869  0.202  0.430-  38 2.77  63 2.79  29 2.79  72 2.79  47 2.79  33 2.80  27 2.80  40 2.81
                            30 2.81
  33  0.118  0.203  0.430-   9 2.79  47 2.79  13 2.79  32 2.80  30 2.80  29 2.80  28 2.80  36 2.80
                            31 2.80
  34  0.618  0.953  0.430-  52 2.78  40 2.78  43 2.79  73 2.79   1 2.80  31 2.80  36 2.80  27 2.81
                            35 2.81
  35  0.868  0.703  0.430-  39 2.78  52 2.78   1 2.79  56 2.79   3 2.80  28 2.80  30 2.80  27 2.81
                            34 2.81
  36  0.368  0.202  0.430-  50 2.77  13 2.79  15 2.79  31 2.79  43 2.80  33 2.80  34 2.80  40 2.81
                            28 2.81
  37  0.365  0.708  0.432-  81 1.86  31 2.77  29 2.77  23 2.79  57 2.82  14 2.82  39 2.83  52 2.83
                            38 2.89  50 2.89
  38  0.623  0.450  0.432-  81 1.86  32 2.77  30 2.77  63 2.79  14 2.82  41 2.82  52 2.83  40 2.83
                            50 2.89  37 2.89
  39  0.115  0.704  0.430-  35 2.78  27 2.78   2 2.78   3 2.78  57 2.80  28 2.81  29 2.81  37 2.83
                            50 2.83
  40  0.619  0.200  0.430-  34 2.78  27 2.78  43 2.78  72 2.79  41 2.79  36 2.81  32 2.81  50 2.83
                            38 2.83
  41  0.535  0.369  0.328-  51 2.74  80 2.75  79 2.76  40 2.79  14 2.80  57 2.80  63 2.80  15 2.80
                            72 2.81  43 2.81  38 2.82  50 2.82
  42  0.536  0.368  0.023-   7 2.79  22 2.79  61 2.80  59 2.80  17 2.80  64 2.80  18 2.81  74 2.81
                            44 2.81
  43  0.535  0.119  0.327-  80 2.73  69 2.74  71 2.74  40 2.78  34 2.79  36 2.80  15 2.81   1 2.81
                            73 2.81  72 2.81  13 2.81  41 2.81
  44  0.536  0.118  0.023-  19 2.79   7 2.79  53 2.79  16 2.80  74 2.80   4 2.80  18 2.81  42 2.81
                            75 2.81
  45  0.869  0.452  0.126-  77 2.73  12 2.74  67 2.74  58 2.79  64 2.79  10 2.80  25 2.80  21 2.81
                            22 2.81  11 2.81  54 2.81  46 2.81
  46  0.119  0.452  0.126-  62 2.73  76 2.74  12 2.74   6 2.79  10 2.79  18 2.79  70 2.80  21 2.81
                            61 2.81  53 2.81  54 2.81  45 2.81
  47  0.035  0.119  0.327-  65 2.74  77 2.74  26 2.74  29 2.79  33 2.79  32 2.79  13 2.80   2 2.81
                             9 2.81  72 2.81  23 2.81  63 2.81
  48  0.036  0.118  0.023-  54 2.78  49 2.79  11 2.79  74 2.80   5 2.80  24 2.81  64 2.81  16 2.81
                            10 2.81
  49  0.119  0.952  0.126-  26 2.74  68 2.74  65 2.74  48 2.79   5 2.79  24 2.79  70 2.80  78 2.81
                            60 2.81   8 2.81  54 2.81  11 2.81
  50  0.365  0.450  0.432-  81 1.86  36 2.77  28 2.77  15 2.79  57 2.82  41 2.82  40 2.83  39 2.83
                            38 2.89  37 2.89
  51  0.452  0.536  0.227-  41 2.74  14 2.74  60 2.74  61 2.74  57 2.75  22 2.75  68 2.80  76 2.80
                            80 2.80  66 2.80  67 2.80  79 2.80
  52  0.619  0.704  0.430-  34 2.78  35 2.78  73 2.78  56 2.79  14 2.79  31 2.81  30 2.81  37 2.83
                            38 2.83
  53  0.369  0.202  0.126-  69 2.74  62 2.74  80 2.74  18 2.79  16 2.79  44 2.79   7 2.80  61 2.81
                            19 2.81  46 2.81  54 2.81   8 2.81
  54  0.119  0.202  0.125-  26 2.74  62 2.74  77 2.75  10 2.78  48 2.78  16 2.79  45 2.81  11 2.81
                            46 2.81  49 2.81  53 2.81   8 2.81
  55  0.952  0.786  0.226-   3 2.74  78 2.74   2 2.74  21 2.74  70 2.74   1 2.74  12 2.80  65 2.81
                            20 2.81  71 2.81  68 2.81  76 2.81
  56  0.785  0.619  0.327-  67 2.74  20 2.74  12 2.74  52 2.79  30 2.79  35 2.79  63 2.81   9 2.81
                             1 2.81  73 2.81   3 2.81  14 2.81
  57  0.285  0.619  0.328-  51 2.75  68 2.75  76 2.75  39 2.80  14 2.80  41 2.80  23 2.80  15 2.80
                             2 2.81   3 2.81  50 2.82  37 2.82
  58  0.786  0.618  0.023-  45 2.79  21 2.79  25 2.80  10 2.80  75 2.80  17 2.81   4 2.81  64 2.81
                             6 2.81
  59  0.286  0.618  0.023-  61 2.79  60 2.79  70 2.79  42 2.80  17 2.80  18 2.80  24 2.80   5 2.81
                             6 2.81
  60  0.369  0.702  0.126-  66 2.74  68 2.74  51 2.74  59 2.79  24 2.79  17 2.80  22 2.80  61 2.80
                            25 2.80  70 2.80   8 2.81  49 2.81
[...]
   -.554E+00 0.385E+00 -.131E+04   0.573E+00 -.399E+00 0.131E+04   -.185E-01 0.176E-01 0.805E+00   0.314E-02 -.223E-02 0.414E-02
   -.202E-01 0.600E-01 0.260E+04   0.242E-01 -.644E-01 -.260E+04   -.837E-02 0.602E-02 -.146E+01   0.179E-02 -.801E-03 -.646E-02
   0.600E+00 0.998E+00 0.260E+04   -.589E+00 -.998E+00 -.260E+04   -.164E-01 -.358E-02 -.142E+01   0.214E-02 0.224E-02 -.180E-02
   -.521E+00 -.100E+01 0.260E+04   0.525E+00 0.992E+00 -.260E+04   -.436E-02 0.205E-01 -.142E+01   -.706E-03 -.344E-02 -.216E-02
   -.956E-01 -.445E+00 0.133E+04   0.935E-01 0.443E+00 -.132E+04   -.144E-02 0.130E-02 -.769E+00   0.368E-02 0.272E-02 -.221E-03
   -.229E+00 -.172E-01 0.133E+04   0.226E+00 0.939E-02 -.133E+04   0.980E-02 0.477E-02 -.763E+00   -.305E-02 0.585E-02 -.352E-04
   0.147E+00 0.863E+00 -.131E+04   -.146E+00 -.868E+00 0.131E+04   0.340E-03 0.311E-02 0.805E+00   -.118E-02 -.828E-03 0.194E-02
   0.162E+00 0.338E+00 0.260E+04   -.152E+00 -.317E+00 -.260E+04   -.101E-01 -.177E-01 -.144E+01   -.849E-03 -.262E-02 0.232E-02
   0.359E+00 0.219E+00 0.133E+04   -.361E+00 -.211E+00 -.133E+04   -.610E-02 -.102E-01 -.762E+00   0.604E-02 -.184E-03 0.117E-02
   -.846E-01 0.426E+00 0.509E+01   0.837E-01 -.424E+00 -.507E+01   0.633E-03 0.214E-02 -.193E-01   0.359E-03 -.581E-02 0.286E-02
   0.766E+00 -.350E+00 -.131E+04   -.768E+00 0.352E+00 0.131E+04   0.620E-02 -.622E-02 0.800E+00   -.469E-02 0.352E-02 0.324E-02
   0.206E+01 0.110E+01 -.133E+04   -.211E+01 -.112E+01 0.133E+04   0.495E-01 0.230E-01 0.772E+00   0.207E-02 -.116E-02 0.449E-02
   0.863E+00 0.643E+00 -.132E+04   -.695E+00 -.549E+00 0.132E+04   -.168E+00 -.101E+00 0.643E+00   -.273E-02 0.332E-02 0.500E-02
   0.355E+00 -.267E+00 0.260E+04   -.321E+00 0.243E+00 -.260E+04   -.320E-01 0.208E-01 -.144E+01   -.347E-02 0.339E-02 0.749E-03
   -.199E-01 -.173E+00 0.260E+04   0.253E-01 0.168E+00 -.260E+04   -.685E-02 0.790E-02 -.144E+01   0.932E-03 -.225E-02 -.313E-02
   -.117E+01 -.569E+00 0.260E+04   0.116E+01 0.549E+00 -.260E+04   0.222E-01 0.248E-01 -.141E+01   -.374E-02 -.138E-02 -.223E-02
   0.153E+00 -.351E-01 0.133E+04   -.156E+00 0.366E-01 -.133E+04   0.118E-03 -.300E-02 -.771E+00   -.186E-02 0.171E-02 -.125E-02
   0.190E+00 -.644E-01 0.380E+01   -.202E+00 0.634E-01 -.381E+01   0.139E-01 0.721E-02 0.288E-02   0.118E-02 -.360E-02 0.580E-02
   0.101E+00 0.240E+00 0.133E+04   -.102E+00 -.242E+00 -.133E+04   -.188E-02 0.329E-02 -.768E+00   0.127E-02 -.685E-02 -.504E-03
   0.405E+00 -.244E+00 0.132E+04   -.423E+00 0.256E+00 -.132E+04   0.131E-01 -.801E-02 -.777E+00   0.149E-02 -.258E-02 0.147E-02
   -.165E+00 -.105E+01 -.132E+04   0.167E+00 0.856E+00 0.132E+04   0.263E-02 0.195E+00 0.647E+00   -.386E-02 0.159E-02 0.541E-02
   -.806E-01 0.129E+01 0.260E+04   0.880E-01 -.127E+01 -.260E+04   -.796E-02 -.271E-01 -.141E+01   -.145E-02 0.353E-02 -.296E-02
   0.284E+00 0.302E+00 0.133E+04   -.285E+00 -.300E+00 -.132E+04   0.353E-03 0.194E-02 -.768E+00   0.418E-03 -.359E-02 -.338E-03
   0.246E-01 0.125E+01 0.631E+01   -.228E-01 -.122E+01 -.635E+01   0.215E-02 -.366E-01 0.427E-01   -.329E-02 0.462E-02 0.245E-02
   -.466E+00 -.298E+00 -.259E+04   0.452E+00 0.297E+00 0.259E+04   0.143E-01 0.153E-02 0.136E+01   0.224E-02 0.154E-03 0.429E-02
   0.449E+01 0.706E+00 -.259E+04   -.446E+01 -.705E+00 0.259E+04   -.332E-01 -.308E-02 0.137E+01   0.985E-03 0.148E-03 0.254E-02
   0.164E+01 -.423E+01 -.259E+04   -.162E+01 0.421E+01 0.259E+04   -.143E-01 0.280E-01 0.137E+01   -.815E-03 -.179E-03 0.256E-02
   -.463E+01 0.477E+00 -.259E+04   0.459E+01 -.478E+00 0.259E+04   0.506E-01 0.556E-03 0.137E+01   -.134E-02 -.148E-02 0.264E-02
   -.167E+01 -.442E+01 -.259E+04   0.164E+01 0.439E+01 0.259E+04   0.323E-01 0.326E-01 0.137E+01   -.311E-02 -.393E-03 0.515E-02
   -.269E+01 0.378E+01 -.259E+04   0.267E+01 -.374E+01 0.259E+04   0.208E-01 -.453E-01 0.137E+01   0.125E-03 0.133E-02 0.180E-02
   -.188E+00 0.146E+00 -.259E+04   0.185E+00 -.141E+00 0.259E+04   0.800E-02 -.796E-02 0.140E+01   -.225E-02 0.139E-02 0.248E-02
   0.293E+00 -.101E+00 -.259E+04   -.292E+00 0.101E+00 0.259E+04   -.658E-03 -.468E-03 0.136E+01   0.670E-03 0.212E-03 0.626E-02
   0.645E-01 0.571E+00 -.259E+04   -.696E-01 -.555E+00 0.259E+04   0.452E-02 -.156E-01 0.136E+01   0.135E-02 -.188E-02 0.517E-02
   0.303E+01 0.363E+01 -.259E+04   -.302E+01 -.359E+01 0.259E+04   -.114E-01 -.415E-01 0.137E+01   -.819E-03 0.359E-02 0.460E-02
   0.320E-01 -.960E+01 -.258E+04   -.352E-01 0.104E+02 0.258E+04   0.564E-02 -.807E+00 0.826E+00   -.176E-02 0.213E-02 0.328E-02
   -.848E+01 0.488E+01 -.258E+04   0.915E+01 -.526E+01 0.258E+04   -.684E+00 0.392E+00 0.827E+00   0.248E-02 -.206E-02 0.245E-02
   -.265E+01 0.153E+01 -.259E+04   0.233E+01 -.134E+01 0.259E+04   0.325E+00 -.188E+00 0.150E+01   0.426E-03 -.410E-03 0.231E-02
   -.383E+00 -.291E+01 -.259E+04   0.369E+00 0.255E+01 0.259E+04   0.152E-01 0.363E+00 0.150E+01   0.170E-02 0.155E-02 0.352E-02
   0.243E-01 -.243E+01 -.133E+04   -.280E-01 0.248E+01 0.133E+04   0.270E-02 -.543E-01 0.768E+00   0.119E-02 -.236E-02 0.393E-02
   0.146E+00 0.113E+00 0.260E+04   -.141E+00 -.117E+00 -.260E+04   -.768E-02 0.390E-02 -.144E+01   0.184E-02 -.226E-03 -.244E-02
   0.180E+00 -.831E+00 -.131E+04   -.186E+00 0.859E+00 0.131E+04   0.981E-02 -.324E-01 0.803E+00   0.178E-02 0.317E-02 0.549E-02
   -.951E+00 -.411E+00 0.260E+04   0.951E+00 0.400E+00 -.260E+04   0.231E-02 0.119E-01 -.142E+01   -.155E-02 0.143E-02 -.369E-02
   -.645E-01 -.409E+00 0.133E+04   0.557E-01 0.408E+00 -.133E+04   0.836E-02 0.103E-01 -.763E+00   0.423E-02 -.637E-02 0.133E-02
   0.794E-01 -.216E+00 0.133E+04   -.671E-01 0.214E+00 -.133E+04   -.120E-01 0.702E-02 -.766E+00   -.545E-02 -.416E-02 0.179E-02
   -.734E+00 -.459E+00 -.131E+04   0.739E+00 0.462E+00 0.131E+04   -.262E-02 -.548E-02 0.806E+00   -.569E-03 0.229E-02 0.316E-02
   -.277E+00 -.442E+00 0.260E+04   0.260E+00 0.416E+00 -.260E+04   0.149E-01 0.253E-01 -.144E+01   0.118E-02 0.275E-02 0.188E-02
   0.201E+00 0.125E+00 0.133E+04   -.193E+00 -.134E+00 -.133E+04   -.106E-01 0.449E-02 -.764E+00   -.105E-02 0.633E-02 0.797E-03
   0.847E+01 0.475E+01 -.258E+04   -.914E+01 -.513E+01 0.258E+04   0.693E+00 0.395E+00 0.827E+00   -.304E-02 -.473E-04 0.221E-02
   -.974E-01 0.446E-01 -.678E+01   0.993E-01 -.436E-01 0.689E+01   -.902E-03 0.462E-03 -.120E+00   -.129E-02 -.820E-03 0.353E-02
   0.238E+01 0.170E+01 -.259E+04   -.207E+01 -.151E+01 0.259E+04   -.307E+00 -.192E+00 0.150E+01   -.605E-03 -.238E-02 0.382E-02
   -.129E+00 0.176E+00 0.133E+04   0.133E+00 -.170E+00 -.133E+04   0.120E-02 -.987E-02 -.763E+00   -.685E-02 0.127E-02 -.302E-03
   -.160E+00 0.217E-01 0.133E+04   0.162E+00 -.249E-01 -.133E+04   0.113E-02 0.219E-02 -.609E+00   -.220E-02 0.290E-02 0.437E-03
   -.196E+00 0.886E-01 0.396E+01   0.202E+00 -.912E-01 -.397E+01   -.131E-01 0.665E-02 0.557E-02   0.301E-02 -.163E-02 0.653E-02
   0.598E+00 0.538E+00 -.132E+04   -.624E+00 -.551E+00 0.131E+04   0.229E-01 0.176E-01 0.798E+00   -.695E-03 -.379E-02 0.490E-02
   -.215E+01 0.118E+01 -.133E+04   0.219E+01 -.120E+01 0.133E+04   -.451E-01 0.251E-01 0.767E+00   -.512E-02 0.149E-02 0.393E-02
   0.759E+00 -.887E+00 0.260E+04   -.747E+00 0.877E+00 -.260E+04   -.162E-01 0.173E-01 -.142E+01   0.163E-02 -.498E-02 -.221E-02
   0.767E-01 -.701E-01 0.260E+04   -.691E-01 0.627E-01 -.260E+04   -.887E-02 0.923E-02 -.144E+01   -.671E-03 -.201E-03 -.252E-02
   0.126E+00 0.579E+00 0.132E+04   -.122E+00 -.597E+00 -.132E+04   -.346E-02 0.160E-01 -.776E+00   -.201E-02 -.153E-02 0.233E-02
[...]
   0.356E-02 0.131E+01 0.117E+01   0.348E-01 -.128E+01 -.121E+01   -.396E-01 -.373E-01 0.391E-01   -.405E-03 0.581E-03 0.582E-02
   0.182E+00 0.880E-02 0.493E+01   -.183E+00 -.903E-02 -.491E+01   0.363E-02 -.431E-02 -.211E-01   -.327E-02 0.325E-02 0.311E-02
   -.502E+00 0.297E+00 0.133E+04   0.505E+00 -.298E+00 -.132E+04   -.254E-02 0.158E-02 -.770E+00   0.111E-02 -.614E-03 0.686E-03
   0.663E-01 -.979E-01 0.375E+01   -.706E-01 0.108E+00 -.376E+01   0.942E-05 -.167E-01 0.298E-02   0.368E-02 0.180E-02 0.631E-02
   -.213E+00 -.676E+00 -.132E+04   0.211E+00 0.705E+00 0.131E+04   -.424E-02 -.318E-01 0.796E+00   0.261E-02 0.284E-02 0.544E-02
   0.881E+00 0.349E+00 -.131E+04   -.907E+00 -.358E+00 0.131E+04   0.303E-01 0.560E-02 0.802E+00   -.136E-02 -.185E-02 0.607E-02
   0.113E+01 -.274E+00 0.260E+04   -.112E+01 0.264E+00 -.260E+04   -.195E-01 0.816E-02 -.142E+01   0.456E-02 0.171E-02 -.170E-02
   -.265E+00 0.104E+01 0.260E+04   0.270E+00 -.104E+01 -.260E+04   -.290E-02 -.657E-02 -.142E+01   -.127E-02 0.109E-02 -.390E-02
   -.112E+01 -.640E+00 0.114E+01   0.112E+01 0.592E+00 -.118E+01   0.800E-02 0.507E-01 0.428E-01   -.105E-02 -.133E-02 0.630E-02
   0.878E+00 -.637E+00 0.584E+01   -.852E+00 0.621E+00 -.587E+01   -.247E-01 0.160E-01 0.363E-01   0.126E-02 -.105E-03 0.159E-02
   -.198E+00 -.215E+00 0.133E+04   0.197E+00 0.215E+00 -.133E+04   0.287E-03 0.469E-03 -.769E+00   0.661E-02 0.279E-02 -.164E-03
   0.123E+01 -.827E+00 0.930E+00   -.119E+01 0.845E+00 -.965E+00   -.471E-01 -.206E-01 0.377E-01   0.456E-02 0.737E-03 0.490E-02
   -.121E+01 -.757E+00 0.898E+00   0.116E+01 0.771E+00 -.935E+00   0.496E-01 -.170E-01 0.400E-01   -.835E-03 0.371E-02 0.518E-02
   0.275E-03 -.215E-01 -.303E+03   0.240E-02 0.208E-01 0.305E+03   -.567E-03 -.935E-03 -.134E+01   -.367E-04 -.187E-04 0.820E-04
   0.616E-02 -.194E-02 0.299E+01   0.211E-12 0.494E-12 0.000E+00   0.692E-02 -.838E-02 -.321E+01   0.419E-03 -.144E-03 0.174E+00

 POSITION                                       TOTAL-FORCE (eV/Angst)
     13.68636      8.44754      7.18180         0.000132     -0.000082     -0.002571
      5.27087      8.44804      7.18024         0.001196     -0.005274     -0.000595
      3.86661      6.01562      7.18023         0.005084      0.001080      0.000061
     13.69569      8.43877      0.50446        -0.002889      0.001212      0.001091
      5.27942      8.43892      0.50508        -0.002756     -0.000718     -0.000324
      3.87613      6.00789      0.50528        -0.001337      0.003963     -0.002080
      8.08052      1.96295      2.78186        -0.000265      0.003503      0.001616
      9.48311      9.24953      2.77932         0.002552      0.002468      0.001536
      2.46408      3.58644      7.17703         0.000670     -0.002295      0.000226
      2.47326      3.58165      0.50362        -0.001144      0.001443     -0.001932
     10.88474      1.96430      2.77943        -0.001967     -0.002098      0.001771
     13.68878      5.20543      4.97973        -0.000139     -0.003751      0.002160
      3.86532      1.15872      7.17751        -0.000636     -0.000806      0.000695
      9.47506      6.01593      7.20430         0.001214     -0.001391      0.002372
      5.27647      3.59217      7.18909         0.000297     -0.000668     -0.003137
      3.87830      1.14787      0.50418        -0.000592     -0.000089     -0.002000
      9.48686      6.00830      0.50733        -0.001090      0.000713     -0.002199
      5.27773      3.57857      0.50307         0.000026      0.003388     -0.001352
     12.28958      9.25184      2.78129        -0.005390      0.000431      0.001122
     12.28482      7.63364      4.98128         0.000948      0.001549      0.004827
     13.69220      6.82303      2.78084        -0.001668     -0.004590      0.002161
      9.48141      4.39363      2.78434        -0.003409      0.001069      0.002163
      8.07464      8.43908      7.18848         0.000535      0.001292     -0.001740
      8.08428      8.43964      0.50302        -0.002347     -0.001133     -0.002143
     10.88602      6.82231      2.78168        -0.001526     -0.000020      0.002089
      2.46639      0.34754      4.97443         0.000646      0.001336      0.004601
     15.08573      9.25900      9.46252         0.002169      0.000879     -0.002855
      3.85668      4.39962      9.45946         0.001214     -0.001758     -0.003577
      6.66603      9.26589      9.45906         0.002793     -0.000144     -0.003583
     12.28713      4.39920      9.45972         0.002393     -0.001238     -0.002235
      9.47735      9.26537      9.45950         0.001226      0.000299     -0.004048
     10.88193      1.96513      9.45974         0.001562     -0.001188     -0.003067
      2.46036      1.97052      9.45962         0.002154     -0.001705     -0.006974
     12.28078      9.25920      9.46229         0.000376     -0.000002     -0.002878
     13.68362      6.83061      9.46218         0.000763     -0.001869     -0.002023
      5.26243      1.96465      9.45974         0.000958      0.000407     -0.003050
      8.07180      6.87722      9.50345         0.000640     -0.002193     -0.002957
      9.51531      4.37673      9.50403         0.002008     -0.001389     -0.003753
      5.24235      6.84359      9.45894        -0.002476      0.001651     -0.003807
      8.07105      1.94238      9.46030         0.002194     -0.004343     -0.004525
      8.07503      3.59062      7.20479         0.000109     -0.000116      0.000788
      8.08465      3.57998      0.50730        -0.000705      0.000203     -0.001263
      6.67087      1.15882      7.18077         0.006318      0.000276     -0.001475
      6.68128      1.14902      0.50546        -0.000209      0.002210     -0.001995
     12.28687      4.39298      2.77950         0.002956      0.002529      0.002076
      3.87431      4.39347      2.77952        -0.004791      0.000704      0.000569
      1.06208      1.15861      7.17696         0.002726     -0.000604      0.001856
      1.06787      1.14737      0.50357        -0.001843      0.000983     -0.000819
      6.67768      9.24975      2.77933        -0.003100      0.001565      0.001504
      6.62868      4.37642      9.50363        -0.000047     -0.000219     -0.001260
      8.07766      5.20524      4.99805        -0.000589      0.000827     -0.007414
     10.90116      6.84406      9.45976         0.005700      0.002036     -0.003579
      5.27685      1.96412      2.77938        -0.001489     -0.002560      0.001303
      2.46878      1.96290      2.76811         0.000220      0.002156     -0.001892
     15.09356      7.63404      4.98076        -0.002465      0.001650      0.006006
     12.28326      6.01585      7.18125        -0.004364      0.000773     -0.002401
      6.67465      6.01593      7.20429        -0.000183     -0.000694     -0.001085
     12.29353      6.00820      0.50599        -0.002082      0.002156     -0.002271
      6.68257      6.00821      0.50763        -0.001876      0.001671     -0.002382
      8.08107      6.82011      2.78431        -0.001846     -0.003404      0.002011
[...]
     10.88126      5.20407      4.98372         0.001630      0.000569      0.008060
      6.67747      7.63359      4.98333        -0.000742     -0.002420      0.005862
      5.27186      0.34596      4.98003        -0.001982     -0.000160      0.001807
      5.27520      6.82219      2.78161         0.001552      0.000063      0.000674
      8.07799      0.34761      4.98136        -0.000693     -0.002254      0.005185
      9.47905      1.15927      7.18165        -0.003647      0.001962     -0.003854
     10.87941      8.44812      7.18073         0.001621     -0.005663     -0.002095
      9.48803      1.14926      0.50595        -0.002277      0.000113     -0.001598
     10.88990      8.43928      0.50530        -0.000211     -0.001634     -0.001495
      5.27462      5.20381      4.98338        -0.001604      0.000677      0.009590
     12.28720      2.77479      4.97526         0.003414      0.000061      0.003655
     15.09398      9.25136      2.78102         0.006166      0.003537      0.001822
      9.48068      2.77790      4.98377        -0.000713     -0.000746      0.006445
      6.67492      2.77794      4.98360         0.001912      0.001216      0.007710
      8.07150      5.21045     10.33694         0.001900     -0.001473     -0.000784
    total drift:                                0.013493     -0.010463     -0.040362

  FREE ENERGIE OF THE ION-ELECTRON SYSTEM (eV)
  free  energy   TOTEN  =      -518.48902587 eV

  energy  without entropy=     -518.53814596  energy(sigma->0) =     -518.50539923

 d Force = 0.2878160E-03[ 0.265E-04, 0.549E-03]  d Energy = 0.3141227E-03-0.263E-04
 d Force =-0.8444011E+02[-0.845E+02,-0.844E+02]  d Ewald  =-0.8444011E+02-0.645E-06

 Conjugate gradient step on ions:
 trial-energy change:   -0.000314  1 .order   -0.000288   -0.000549   -0.000026
  (g-gl).g = 0.799E-05      g.g   = 0.841E-05  gl.gl    = 0.158E-04
 g(Force)  = 0.841E-05   g(Stress)= 0.000E+00 ortho     = 0.432E-06
 gamma     =   0.50501
 trial     =  63.64745
 opt step  =  66.10078  (harmonic =  66.87017) maximal distance =0.00145999
 next E    =  -518.489026   (d E  =  -0.00031)

 reached required accuracy - stopping structural energy minimisation