 vasp.5.4.4.18Apr17-6-g9f103f2a35 (build Nov 06 2019 15:09:28) complex

 executed on             LinuxIFC date 2023.08.07  10:54:27

 INCAR:
 POTCAR:    PAW_PBE Pt 04Feb2005
 POTCAR:    PAW_PBE H 15Jun2001
 POTCAR:    PAW_PBE Pt 04Feb2005
   VRHFIN =Pt: s1d9

   TITEL  = PAW_PBE Pt 04Feb2005
   POMASS =  195.080; ZVAL   =   10.000    mass and valenz
   ENMAX  =  230.283; ENMIN  =  172.712 eV

 POTCAR:    PAW_PBE H 15Jun2001
   VRHFIN =H: ultrasoft test

   TITEL  = PAW_PBE H 15Jun2001
   POMASS =    1.000; ZVAL   =    1.000    mass and valenz
   ENMAX  =  250.000; ENMIN  =  200.000 eV

 Optimization of the real space projectors (new method)

 maximal supplied QI-value         = 14.36
 optimisation between [QCUT,QGAM] = [ 11.92, 23.98] = [ 39.79,161.09] Ry
 Optimized for a Real-space Cutoff    1.49 Angstroem

   l    n(q)    QCUT    max X(q) W(low)/X(q) W(high)/X(q)  e(spline)
   2     10    11.920    66.195    0.79E-04    0.18E-03    0.24E-06
   2     10    11.920    64.643    0.81E-04    0.19E-03    0.24E-06
   0     11    11.920    95.520    0.28E-04    0.54E-04    0.18E-06
   0     11    11.920    63.403    0.27E-04    0.52E-04    0.17E-06
   1     10    11.920    19.961    0.18E-04    0.11E-03    0.23E-06
   1     10    11.920    13.289    0.25E-04    0.87E-04    0.19E-06
 Optimization of the real space projectors (new method)

 maximal supplied QI-value         = 34.20
 optimisation between [QCUT,QGAM] = [ 11.97, 23.94] = [ 40.13,160.53] Ry
 Optimized for a Real-space Cutoff    1.18 Angstroem

   l    n(q)    QCUT    max X(q) W(low)/X(q) W(high)/X(q)  e(spline)
   0      8    11.971    19.460    0.15E-03    0.31E-03    0.25E-06
   0      8    11.971    12.209    0.13E-03    0.29E-03    0.25E-06
   1      8    11.971     4.655    0.22E-03    0.24E-03    0.21E-06
  PAW_PBE Pt 04Feb2005                  :
  PAW_PBE H 15Jun2001                   :

 POSCAR: Pt   H
  positions in cartesian coordinates
 exchange correlation table for  LEXCH =        8
   RHO(1)=    0.500       N(1)  =     2000
   RHO(2)=  100.500       N(2)  =     4000

 VTST: version 3.2, (02/03/18)

 CHAIN: initializing optimizer

 OPT: Using VASP QUASI-newton optimizer
 CHAIN: Read ICHAIN            0
 CHAIN: Running the NEB
 NEB:          SPRING     -5.000000
 NEB:          LCLIMB      T
 NEB:     LTANGENTOLD      F
 NEB:           LDNEB      F
 NEB:        LDNEBORG      F
 NEB:        LNEBCELL      F
 NEB:          EFIRST      0.000000
 NEB:           ELAST      0.000000

 POSCAR: Pt   H
  positions in cartesian coordinates

 POSCAR: Pt111\(1\1\1)\(2)
  positions in cartesian coordinates

 ion  position               nearest neighbor table
   1  1.000  0.000  0.056-   5 2.64   9 2.64  13 2.64  29 2.64  57 2.64  37 2.64  42 2.87  14 2.87
                            54 2.87
   2  0.333  0.167  0.178-  30 2.64  26 2.64  38 2.64  42 2.64  14 2.64   6 2.64  11 2.82   9 2.87
                            21 2.87  13 2.87   7 2.88  15 2.89
   3  0.168  0.333  0.299-   7 2.61  15 2.61  43 2.63  27 2.64  39 2.64  31 2.65   8 2.82  48 2.83
                             6 2.87  14 2.87  10 2.88  12 3.10
   4  0.000  0.001  0.418-   8 2.63  16 2.64  32 2.64  40 2.64  12 2.64  60 2.65   7 2.82  27 2.86
                            63 2.89
   5  1.000  0.250  0.056-   1 2.64  45 2.64  33 2.64   9 2.64  29 2.64  25 2.64  14 2.87  10 2.87
                            18 2.87
   6  0.333  0.417  0.178-  26 2.64  62 2.64  10 2.64  34 2.64  14 2.64   2 2.64  43 2.87   3 2.87
                            45 2.87  49 2.87   9 2.87  15 2.88
   7  0.168  0.086  0.300-   3 2.61  15 2.62  11 2.63  27 2.64  35 2.65  63 2.66   4 2.82  16 2.83
                             2 2.88  14 2.88  42 2.90  12 3.08
   8  1.000  0.250  0.418-   4 2.63  32 2.64  28 2.64  48 2.64  36 2.64  12 2.66   3 2.82  27 2.85
                            31 2.86
   9  0.250  0.250  0.056-  21 2.64  13 2.64   1 2.64  49 2.64  45 2.64   5 2.64   2 2.87  14 2.87
                             6 2.87
  10  0.083  0.417  0.178-  34 2.64   6 2.64  46 2.64  14 2.64  18 2.64  22 2.64  39 2.83  31 2.83
                            33 2.87  45 2.87   5 2.87   3 2.88
  11  0.416  0.084  0.297-   7 2.63  35 2.63  19 2.64  23 2.64  47 2.65  15 2.65   2 2.82  24 2.83
                            30 2.83  38 2.83  16 2.88  20 2.89
  12  0.249  0.249  0.435-  66 2.12  65 2.14   4 2.64  16 2.65   8 2.66  52 2.67  48 2.67  24 2.68
                             7 3.08  15 3.09   3 3.10
  13  0.250  0.000  0.056-  21 2.64   9 2.64  17 2.64   1 2.64  37 2.64  41 2.64  38 2.87   2 2.87
                            42 2.87
  14  0.083  0.167  0.178-  42 2.64  54 2.64   6 2.64   2 2.64  10 2.64  18 2.64  27 2.83   5 2.87
                             1 2.87   9 2.87   3 2.87   7 2.88
  15  0.416  0.334  0.300-   3 2.61  43 2.61   7 2.62  55 2.62  11 2.65  19 2.65  24 2.78   6 2.88
                            26 2.89   2 2.89  52 3.07  12 3.09
  16  0.250  1.000  0.419-  44 2.64  40 2.64   4 2.64  20 2.64  24 2.64  12 2.65   7 2.83  35 2.88
                            11 2.88
  17  0.500  0.000  0.056-  29 2.64  25 2.64  13 2.64  21 2.64  41 2.64  53 2.64  58 2.87  30 2.87
                            38 2.87
  18  0.833  0.167  0.178-  54 2.64  58 2.64  22 2.64  10 2.64  30 2.64  14 2.64  31 2.84  27 2.84
                            23 2.85  25 2.87  29 2.87   5 2.87
  19  0.666  0.334  0.297-  55 2.63  59 2.63  11 2.64  23 2.64  31 2.65  15 2.65  26 2.82  24 2.83
                            22 2.83  30 2.83  64 2.88  28 2.90
  20  0.500  1.000  0.419-  56 2.64  32 2.64  24 2.64  44 2.64  16 2.64  28 2.64  23 2.87  47 2.88
                            11 2.89
  21  0.500  0.250  0.056-  25 2.64  61 2.64   9 2.64  13 2.64  49 2.64  17 2.64  30 2.87   2 2.87
                            26 2.87
  22  0.833  0.417  0.178-  50 2.64  26 2.64  30 2.64  18 2.64  46 2.64  10 2.64  59 2.83  19 2.83
                            31 2.84  61 2.87  25 2.87  33 2.87
  23  0.667  0.084  0.298-  19 2.64  31 2.64  11 2.64  47 2.64  27 2.64  51 2.64  30 2.85  18 2.85
                            58 2.85  32 2.87  20 2.87  28 2.87
  24  0.500  0.250  0.416-  28 2.64  20 2.64  16 2.64  64 2.64  52 2.68  12 2.68  15 2.78  19 2.83
                            11 2.83
  25  0.750  0.250  0.056-  17 2.64  21 2.64  29 2.64  61 2.64  33 2.64   5 2.64  18 2.87  22 2.87
                            30 2.87
  26  0.583  0.417  0.178-   6 2.64   2 2.64  22 2.64  30 2.64  62 2.64  50 2.64  19 2.82  49 2.87
                            61 2.87  21 2.87  55 2.88  15 2.89
  27  0.917  0.083  0.297-  63 2.63  31 2.64  51 2.64   7 2.64   3 2.64  23 2.64  14 2.83  18 2.84
                            54 2.84   8 2.85   4 2.86  32 2.88
  28  0.750  0.250  0.419-  32 2.64  24 2.64   8 2.64  36 2.64  64 2.64  20 2.64  23 2.87  31 2.89
                            19 2.90
  29  0.750  0.000  0.056-  17 2.64  25 2.64   5 2.64  53 2.64   1 2.64  57 2.64  54 2.87  18 2.87
                            58 2.87
  30  0.583  0.167  0.178-   2 2.64  38 2.64  58 2.64  26 2.64  22 2.64  18 2.64  11 2.83  19 2.83
                            23 2.85  21 2.87  17 2.87  25 2.87
  31  0.917  0.334  0.297-  39 2.64  27 2.64  59 2.64  23 2.64  19 2.65   3 2.65  10 2.83  22 2.84
                            18 2.84   8 2.86  36 2.87  28 2.89
  32  0.750  0.000  0.419-  56 2.64   8 2.64  28 2.64  20 2.64  60 2.64   4 2.64  23 2.87  51 2.88
                            27 2.88
  33  1.000  0.500  0.056-  37 2.64  41 2.64   5 2.64  45 2.64  25 2.64  61 2.64  10 2.87  46 2.87
                            22 2.87
  34  0.333  0.667  0.178-  62 2.64  10 2.64  58 2.64  46 2.64   6 2.64  38 2.64  39 2.83  47 2.83
                            41 2.87  45 2.87  53 2.87  43 2.88
  35  0.167  0.834  0.297-  11 2.63  47 2.64  63 2.64  59 2.65  39 2.65   7 2.65  40 2.83  42 2.83
                            38 2.83  46 2.83  16 2.88  44 2.88
  36  0.000  0.500  0.418-  48 2.64  64 2.64  28 2.64  44 2.64  40 2.64   8 2.64  31 2.87  59 2.87
                            39 2.88
  37  1.000  0.750  0.056-  33 2.64  41 2.64  61 2.64  57 2.64  13 2.64   1 2.64  46 2.87  50 2.87
                            42 2.87
  38  0.333  0.917  0.178-  58 2.64  30 2.64   2 2.64  42 2.64  34 2.64  46 2.64  35 2.83  11 2.83
                            47 2.84  13 2.87  17 2.87  41 2.87
  39  0.167  0.583  0.297-  47 2.64  31 2.64  43 2.64   3 2.64  35 2.65  59 2.65  34 2.83  10 2.83
                            46 2.83  48 2.87  36 2.88  44 2.88
  40  1.000  0.750  0.416-  64 2.64  16 2.64  60 2.64  44 2.64  36 2.64   4 2.64  35 2.83  59 2.83
                            63 2.84
  41  0.250  0.750  0.056-  45 2.64  33 2.64  37 2.64  53 2.64  17 2.64  13 2.64  34 2.87  46 2.87
                            38 2.87
  42  0.083  0.917  0.178-  14 2.64   2 2.64  38 2.64  46 2.64  50 2.64  54 2.64  63 2.82  35 2.83
                             1 2.87  13 2.87  37 2.87   7 2.90
  43  0.417  0.582  0.299-  55 2.61  15 2.61   3 2.63  51 2.64  39 2.64  47 2.65  56 2.82  48 2.84
                             6 2.87  62 2.87  34 2.88  52 3.08
  44  0.250  0.750  0.419-  48 2.64  16 2.64  20 2.64  36 2.64  40 2.64  56 2.64  47 2.87  35 2.88
                            39 2.88
  45  0.250  0.500  0.056-  41 2.64  53 2.64   5 2.64   9 2.64  49 2.64  33 2.64   6 2.87  10 2.87
                            34 2.87
  46  0.083  0.667  0.178-  34 2.64  50 2.64  10 2.64  42 2.64  22 2.64  38 2.64  39 2.83  59 2.83
                            35 2.83  37 2.87  33 2.87  41 2.87
  47  0.417  0.833  0.297-  39 2.64  51 2.64  35 2.64  23 2.64  11 2.65  43 2.65  34 2.83  58 2.84
                            38 2.84  56 2.85  44 2.87  20 2.88
  48  0.250  0.500  0.419-  36 2.64  44 2.64   8 2.64  56 2.64  52 2.67  12 2.67   3 2.83  43 2.84
                            39 2.87
  49  0.500  0.500  0.056-  61 2.64  53 2.64  57 2.64  21 2.64   9 2.64  45 2.64  26 2.87   6 2.87
                            62 2.87
  50  0.833  0.667  0.178-  22 2.64  46 2.64  26 2.64  42 2.64  54 2.64  62 2.64  63 2.82  59 2.83
                            57 2.87  61 2.87  37 2.87  55 2.90
  51  0.667  0.833  0.297-  63 2.63  47 2.64  27 2.64  55 2.64  43 2.64  23 2.64  54 2.84  62 2.84
                            58 2.84  56 2.85  60 2.87  32 2.88
  52  0.501  0.501  0.433-  65 2.13  66 2.17  60 2.64  56 2.65  64 2.65  12 2.67  48 2.67  24 2.68
                            55 3.05  15 3.07  43 3.08
  53  0.500  0.750  0.056-  49 2.64  57 2.64  45 2.64  41 2.64  29 2.64  17 2.64  62 2.87  34 2.87
                            58 2.87
  54  0.833  0.917  0.178-  18 2.64  14 2.64  50 2.64  58 2.64  42 2.64  62 2.64  63 2.81  51 2.84
                            27 2.84  29 2.87   1 2.87  57 2.87
  55  0.664  0.582  0.300-  43 2.61  15 2.62  19 2.63  51 2.64  59 2.65  63 2.66  60 2.83  64 2.83
                            26 2.88  62 2.88  50 2.90  52 3.05
  56  0.501  0.750  0.418-  60 2.63  32 2.64  20 2.64  44 2.64  48 2.64  52 2.65  43 2.82  51 2.85
                            47 2.85
  57  0.750  0.750  0.056-  61 2.64  49 2.64  53 2.64  37 2.64   1 2.64  29 2.64  50 2.87  62 2.87
                            54 2.87
[...]
   0.690E+01 -.324E+01 -.821E+03   -.709E+01 0.334E+01 0.821E+03   0.181E+00 -.997E-01 0.913E-01   -.606E-02 0.442E-02 0.430E-02
   -.730E+01 0.177E+02 -.229E+04   0.722E+01 -.176E+02 0.229E+04   0.854E-01 -.488E-01 0.807E-01   -.641E-02 0.137E-01 0.871E-02
   -.880E+00 0.633E+00 0.231E+04   0.869E+00 -.617E+00 -.231E+04   0.125E-01 -.357E-01 -.127E+00   0.684E-02 -.430E-02 -.136E-01
   -.264E+01 0.119E+00 0.784E+03   0.269E+01 -.965E-01 -.784E+03   -.528E-01 -.194E-01 -.391E+00   -.729E-03 -.416E-02 -.113E-01
   -.909E+00 -.139E+01 -.747E+03   0.878E+00 0.141E+01 0.747E+03   0.383E-01 -.184E-01 0.442E+00   -.918E-03 -.177E-02 0.217E-01
   -.643E+00 0.218E+01 -.230E+04   0.683E+00 -.222E+01 0.230E+04   -.422E-01 0.416E-01 0.744E-01   0.843E-02 -.851E-03 0.334E-01
   0.619E+01 -.359E+01 0.231E+04   -.628E+01 0.365E+01 -.231E+04   0.171E-01 -.967E-02 0.199E-02   0.933E-02 -.487E-02 -.161E-01
   0.836E+00 0.259E+00 0.791E+03   -.870E+00 -.267E+00 -.791E+03   0.333E-01 0.285E-02 -.430E+00   0.684E-02 0.185E-02 -.974E-02
   0.500E+00 -.310E+00 -.768E+03   -.571E+00 0.352E+00 0.767E+03   0.539E-01 -.335E-01 0.449E+00   0.987E-02 -.553E-02 0.227E-01
   -.194E+02 0.111E+02 -.223E+04   0.197E+02 -.113E+02 0.223E+04   -.293E+00 0.164E+00 0.105E+00   -.138E-01 0.633E-02 0.991E-02
   -.933E+00 0.418E+00 0.231E+04   0.915E+00 -.420E+00 -.231E+04   0.368E-01 0.914E-02 -.130E+00   0.652E-02 -.381E-02 -.135E-01
   0.786E+01 -.156E+01 0.773E+03   -.796E+01 0.160E+01 -.773E+03   0.899E-01 -.530E-01 -.331E+00   0.849E-02 0.542E-02 -.129E-01
   -.112E+01 0.212E+00 -.760E+03   0.111E+01 -.257E+00 0.760E+03   -.193E-02 0.444E-01 0.429E+00   -.108E-02 -.127E-02 0.179E-01
   -.237E+01 -.664E+00 -.230E+04   0.242E+01 0.651E+00 0.230E+04   -.526E-01 0.183E-01 0.798E-01   0.568E-02 -.908E-02 0.328E-01
   -.353E+00 0.270E+00 0.231E+04   0.383E+00 -.286E+00 -.231E+04   -.365E-01 0.203E-01 -.113E+00   -.192E-02 0.416E-03 -.116E-01
   0.144E+01 -.821E+00 0.797E+03   -.151E+01 0.864E+00 -.796E+03   0.664E-01 -.387E-01 -.253E+00   0.125E-01 -.675E-02 -.565E-02
   0.879E+00 -.378E+00 -.758E+03   -.818E+00 0.428E+00 0.758E+03   -.587E-01 -.490E-01 0.383E+00   0.936E-02 -.768E-02 0.163E-01
   0.179E+01 -.122E+01 -.230E+04   -.178E+01 0.122E+01 0.230E+04   -.197E-01 0.119E-01 0.924E-01   0.520E-02 -.747E-03 0.159E-01
   -.166E+01 0.274E+01 0.231E+04   0.161E+01 -.272E+01 -.231E+04   0.179E-01 -.392E-01 -.190E+00   -.296E-02 0.880E-03 -.129E-01
   -.654E+01 0.412E+01 0.791E+03   0.663E+01 -.418E+01 -.790E+03   -.913E-01 0.514E-01 -.243E+00   -.577E-02 0.895E-02 -.803E-02
   -.533E+00 -.178E+00 -.750E+03   0.502E+00 0.216E+00 0.749E+03   0.280E-01 -.352E-01 0.373E+00   -.199E-02 0.146E-02 0.144E-01
   0.493E+01 -.546E+01 -.229E+04   -.496E+01 0.540E+01 0.229E+04   0.250E-01 0.666E-01 0.698E-01   0.123E-01 -.109E-01 0.568E-01
   0.309E+01 -.164E+01 0.231E+04   -.302E+01 0.160E+01 -.231E+04   -.835E-01 0.463E-01 -.184E+00   0.486E-03 -.789E-03 -.113E-01
   0.140E+00 -.828E+00 0.791E+03   -.151E+00 0.858E+00 -.791E+03   0.131E-01 -.275E-01 -.428E+00   0.301E-02 -.692E-02 -.105E-01
   0.144E+01 -.100E+01 -.740E+03   -.139E+01 0.972E+00 0.739E+03   -.573E-01 0.345E-01 0.563E+00   0.122E-01 -.560E-02 0.274E-01
   -.334E+01 0.190E+01 -.227E+04   0.333E+01 -.190E+01 0.227E+04   0.124E-01 -.743E-02 -.991E-02   -.931E-02 0.667E-02 0.458E-01
   -.326E+01 0.982E-01 0.231E+04   0.322E+01 -.696E-01 -.231E+04   0.421E-01 0.421E-02 -.191E+00   -.147E-02 0.205E-02 -.128E-01
   0.940E+00 -.618E+01 0.786E+03   -.961E+00 0.629E+01 -.786E+03   0.247E-01 -.944E-01 -.254E+00   -.328E-02 -.912E-02 -.100E-01
   -.471E+01 0.405E+01 -.799E+03   0.488E+01 -.418E+01 0.799E+03   -.167E+00 0.152E+00 0.161E+00   0.201E-02 -.400E-03 0.139E-01
   0.731E+01 -.137E+01 -.229E+04   -.727E+01 0.144E+01 0.229E+04   -.475E-01 -.598E-01 0.742E-01   0.139E-01 -.597E-02 0.558E-01
   -.846E+01 0.482E+01 0.231E+04   0.854E+01 -.487E+01 -.231E+04   0.121E-01 -.650E-02 -.705E-01   -.818E-02 0.569E-02 -.139E-01
   0.118E-02 -.446E-01 0.799E+03   0.135E-01 0.358E-01 -.799E+03   -.132E-01 0.907E-02 -.240E+00   -.170E-02 0.109E-02 -.315E-02
   0.110E+01 -.565E+00 -.759E+03   -.112E+01 0.488E+00 0.758E+03   0.183E-01 0.761E-01 0.387E+00   0.107E-01 -.335E-02 0.161E-01
   0.227E+02 -.129E+02 -.226E+04   -.231E+02 0.131E+02 0.226E+04   0.362E+00 -.203E+00 0.207E+00   0.143E-01 -.898E-02 0.991E-03
   0.423E+01 0.184E+01 0.230E+04   -.427E+01 -.190E+01 -.230E+04   -.828E-02 0.330E-01 -.329E-01   0.230E-02 0.912E-02 -.135E-01
   0.589E+01 0.228E+01 0.786E+03   -.600E+01 -.232E+01 -.786E+03   0.976E-01 0.301E-01 -.269E+00   0.489E-02 0.631E-02 -.108E-01
   -.849E+00 0.642E+00 -.760E+03   0.887E+00 -.608E+00 0.760E+03   -.429E-01 -.249E-01 0.430E+00   0.134E-02 0.269E-02 0.183E-01
   -.186E+02 -.278E+02 -.234E+04   0.195E+02 0.293E+02 0.234E+04   -.912E+00 -.160E+01 0.156E+01   -.144E-01 0.536E-03 0.491E-02
   -.423E+01 0.420E+01 0.231E+04   0.421E+01 -.429E+01 -.231E+04   0.346E-01 0.448E-01 -.355E-02   -.379E-04 0.107E-01 -.123E-01
   0.123E+00 -.533E-01 0.799E+03   -.115E+00 0.464E-01 -.799E+03   -.120E-01 0.112E-01 -.326E+00   -.271E-02 0.827E-03 -.517E-02
   0.247E+01 0.170E+01 -.806E+03   -.265E+01 -.194E+01 0.806E+03   0.195E+00 0.224E+00 0.297E+00   -.965E-02 0.628E-02 0.381E-02
   0.709E+01 -.155E+02 -.228E+04   -.705E+01 0.155E+02 0.228E+04   -.425E-01 0.178E-01 0.106E-01   0.739E-02 -.510E-02 -.106E-01
   0.441E+01 0.359E+01 0.231E+04   -.443E+01 -.364E+01 -.231E+04   -.343E-02 0.157E-02 -.693E-01   0.102E-02 0.758E-02 -.117E-01
   -.138E+01 0.223E+01 0.784E+03   0.139E+01 -.228E+01 -.783E+03   -.108E-01 0.584E-01 -.385E+00   0.298E-02 0.316E-02 -.110E-01
   -.889E-01 0.440E+00 -.750E+03   0.411E-01 -.430E+00 0.749E+03   0.446E-01 -.880E-02 0.370E+00   -.842E-03 0.477E-03 0.156E-01
   -.111E+02 -.136E+02 -.229E+04   0.111E+02 0.134E+02 0.229E+04   0.108E+00 0.151E+00 0.212E-01   -.155E-01 0.665E-02 0.119E-01
   0.583E+01 0.838E+00 0.231E+04   -.584E+01 -.771E+00 -.231E+04   -.257E-01 -.442E-01 -.107E+00   0.883E-02 0.414E-02 -.132E-01
   0.474E+00 0.469E+01 0.765E+03   -.490E+00 -.483E+01 -.765E+03   0.153E-01 0.135E+00 -.524E+00   0.195E-02 0.126E-01 -.160E-01
   0.315E+00 -.293E+00 -.737E+03   -.316E+00 0.295E+00 0.736E+03   0.311E-02 -.276E-02 0.431E+00   -.985E-02 0.677E-02 0.210E-01
   -.190E+02 -.239E+01 -.229E+04   0.190E+02 0.244E+01 0.229E+04   0.928E-01 -.489E-01 0.945E-01   -.152E-01 -.189E-02 0.699E-02
   0.170E+02 -.111E+02 -.270E+03   -.200E+02 0.131E+02 0.271E+03   0.311E+01 -.204E+01 -.465E+00   -.416E-03 -.571E-03 -.153E-02
   -.180E+02 0.109E+02 -.270E+03   0.210E+02 -.129E+02 0.271E+03   -.313E+01 0.203E+01 -.484E+00   -.148E-02 0.542E-04 -.130E-02
   0.833E-01 -.330E-01 -.169E+01   0.924E-13 0.714E-12 0.426E-11   -.930E-01 0.432E-01 0.150E+01   -.119E-01 0.749E-02 0.187E+00

 POSITION                                       TOTAL-FORCE (eV/Angst)
     10.55998      0.00001      1.11585         0.030677      0.039152      0.003617
      2.63544      1.53007      3.56833         0.000428      0.000832      0.004275
      0.00836      3.04362      6.01145        -0.002133      0.001639      0.019741
      0.00184      0.00130      8.37090         0.000643      0.001280      0.003438
      9.23998      2.28632      1.11585         0.046960      0.004305      0.069675
      1.32410      3.80822      3.61814         0.002692     -0.001686      0.004665
      1.32469      0.78570      6.01849        -0.002307      0.001607      0.008705
      9.23931      2.28205      8.36413         0.002034     -0.001359      0.020296
      1.31998      2.28632      1.11585        -0.000696      0.043533      0.088924
     -1.31290      3.80643      3.53877         0.001322      0.000058      0.003990
      3.95725      0.76334      5.92288        -0.000370      0.003139      0.002860
      1.31582      2.27455      8.67240         0.007102      0.001330      0.013116
      2.63998      0.00001      1.11585        -0.036860      0.009265     -0.025364
      0.00734      1.52910      3.58645         0.001562      0.001106      0.006744
      2.62587      3.05751      6.03547        -0.000091     -0.001404      0.004614
     -2.63664      9.14132      8.38473         0.001210     -0.000767      0.011002
      5.27998      0.00001      1.11585         0.006699     -0.022461     -0.049439
      7.92154      1.52407      3.55367         0.001841      0.000829     -0.001374
      5.27856      3.05197      5.92328        -0.005047      0.000065      0.002065
      0.00294      9.14320      8.38640         0.003352     -0.002188     -0.016459
      3.95998      2.28632      1.11585        -0.068453      0.037862      0.031996
      6.59845      3.80996      3.53859        -0.002079     -0.001233     -0.007680
      6.59566      0.76578      5.94972        -0.000672     -0.000830     -0.011504
      3.97007      2.28188      8.31386         0.000641      0.002205      0.005715
      6.59998      2.28632      1.11585         0.022136      0.004103     -0.050813
      3.95263      3.81153      3.56817         0.000401      0.000585      0.004722
      9.23966      0.76054      5.94490         0.002176      0.006243      0.009866
      6.60431      2.28681      8.38775         0.001358     -0.003308     -0.013668
      7.91998      0.00001      1.11585        -0.003310      0.001149     -0.020599
      5.27736      1.52575      3.52887        -0.002639      0.001387     -0.000736
      7.92239      3.05198      5.93619         0.004885     -0.003958     -0.006520
      7.92058      0.00127      8.37999         0.001033      0.003007      0.007169
      7.91998      4.57263      1.11585        -0.031467     -0.018782     -0.101881
      0.00715      6.09289      3.53910        -0.000205     -0.001379      0.002229
     -2.64175      7.62813      5.92195        -0.003070      0.000989     -0.020035
     -2.63971      4.57463      8.36205         0.002617     -0.001004     -0.035587
      6.59998      6.85894      1.11585        -0.011547      0.002920     -0.055609
     -1.32026      8.38471      3.53849         0.000095      0.001535     -0.005429
     -1.31739      5.33411      5.90707         0.004402      0.001278     -0.010768
      6.60017      6.86030      8.30762         0.002058     -0.000549     -0.021960
     -1.32002      6.85894      1.11585         0.003716      0.035738     -0.102294
     -3.96114      8.39173      3.54221        -0.000374      0.002850     -0.001901
      1.32844      5.33168      6.01006        -0.001706     -0.001204      0.012642
     -1.32030      6.85962      8.36812         0.001032      0.000013     -0.038668
     -0.00002      4.57263      1.11585         0.089212     -0.052110      0.053726
     -2.64138      6.09747      3.51954         0.001890      0.000136     -0.014750
     -0.00153      7.61869      5.93698         0.005539     -0.000264     -0.005854
     -0.00610      4.57688      8.36452         0.001766     -0.001807      0.024830
      2.63998      4.57263      1.11585        -0.036852     -0.021140      0.091668
      5.27181      6.09317      3.54402        -0.001704     -0.000928     -0.003710
      2.64237      7.62397      5.94581        -0.003956     -0.003444      0.010643
      2.64689      4.58510      8.65466         0.000604     -0.003744     -0.004520
      1.31998      6.85894      1.11585         0.018210     -0.043262      0.071156
      3.95691      8.38477      3.52898        -0.000376      0.001408      0.002401
      3.94258      5.32121      6.02115        -0.000356     -0.000159      0.006308
      1.32450      6.86426      8.36294         0.000591      0.002118      0.023663
      3.95998      6.85894      1.11585        -0.019447     -0.047790      0.006700
      1.32099      8.38171      3.55408        -0.001689     -0.001060     -0.001190
      6.59335      5.33413      5.92226        -0.000666      0.002053     -0.021642
      3.96173      6.86057      8.37654         0.003593     -0.000731      0.007984
      5.27998      4.57263      1.11585        -0.025899      0.029420     -0.022645
      2.63963      6.08798      3.58711        -0.001007     -0.002628      0.004672
      5.27526      7.62463      5.90276        -0.001073      0.002147     -0.000176
      5.28599      4.57395      8.38639         0.002912      0.000261      0.010826
      1.63675      3.66301     10.30249         0.019060      0.028915      0.008151
      2.33295      3.19758     10.30541        -0.030399     -0.035285      0.007981
    total drift:                               -0.021603      0.017673      0.003657

  FREE ENERGIE OF THE ION-ELECTRON SYSTEM (eV)
  free  energy   TOTEN  =      -411.50946551 eV

  energy  without entropy=     -411.46995473  energy(sigma->0) =     -411.49629525

 d Force = 0.1457081E-02[ 0.130E-02, 0.161E-02]  d Energy = 0.1169701E-02 0.287E-03
 d Force =-0.6969143E+01[-0.692E+01,-0.702E+01]  d Ewald  =-0.6969148E+01 0.560E-05

 NEB: the previous image is higher in energy: F
 NEB: the next image is higher in energy    : F
 NEB: image is at an extrema
 NEB: diff energy (min, max):     0.336435    0.605483

 NEB: Tangent
      0.00000      0.00000      0.00000
      0.00302     -0.00482     -0.01627
     -0.01517      0.00448     -0.05820
     -0.00882     -0.00857      0.01266
      0.00000      0.00000      0.00000
     -0.00325      0.00194     -0.06497
     -0.00630     -0.01848     -0.04401
     -0.00781      0.00377      0.01514
      0.00000      0.00000      0.00000
     -0.00520      0.00179      0.00417
      0.00221     -0.00328      0.01058
     -0.00029      0.01437     -0.35350
      0.00000      0.00000      0.00000
     -0.00604     -0.00424     -0.02590
      0.00890     -0.00558     -0.07750
      0.00024      0.00131      0.00969
      0.00000      0.00000      0.00000
     -0.00130     -0.00031     -0.00036
      0.00411      0.00008      0.01116
     -0.00278      0.00143      0.00548
      0.00000      0.00000      0.00000
      0.00140     -0.00087      0.00733
      0.00184     -0.00080      0.00620
     -0.00179     -0.00046      0.01753
      0.00000      0.00000      0.00000
      0.00560     -0.00015     -0.01568
     -0.00571      0.00173      0.00659
     -0.00303      0.00004      0.00692
      0.00000      0.00000      0.00000
      0.00264     -0.00126      0.01133
     -0.00510      0.00059      0.00956
     -0.00496      0.00115      0.02143
      0.00000      0.00000      0.00000
     -0.00395      0.00382      0.00431
     -0.00226     -0.00246      0.01409
     -0.00411      0.00159      0.01319
      0.00000      0.00000      0.00000
      0.00174     -0.00048      0.00695
     -0.01023      0.00582      0.01337
     -0.00126     -0.00087      0.04715
      0.00000      0.00000      0.00000
      0.00050     -0.00353      0.00861
     -0.01082      0.01109     -0.05647
     -0.00428      0.00079      0.00990
      0.00000      0.00000      0.00000
      0.00043     -0.00005      0.01332
     -0.00294      0.00411      0.00920
     -0.00037     -0.00083     -0.02350
      0.00000      0.00000      0.00000
      0.00357      0.00184      0.00770
     -0.00452      0.00358      0.00621
     -0.01139     -0.01339     -0.33277
      0.00000      0.00000      0.00000
      0.00067     -0.00014      0.01403
      0.01383      0.01426     -0.04632
     -0.00809      0.00223      0.01657
      0.00000      0.00000      0.00000
     -0.00017      0.00182     -0.00042
      0.00103      0.00296      0.01485
      0.00070      0.00779      0.00855
      0.00000      0.00000      0.00000
      0.00067      0.00761     -0.02645
      0.00019      0.00036      0.02648
     -0.00191     -0.00267      0.01087
      0.16356     -0.07704      0.57363
     -0.12274      0.07414      0.59061

 NEB: forces: par spring, perp REAL, dneb     0.628585    0.111541    0.000000
 NEB: distance to prev, next image, angle between     0.744093    0.869810  145.876982
 NEB: projections on to tangent (spring, REAL)     0.628585    0.002028

 stress matrix after NEB project (eV)
     81.21838      0.03926      0.13622
      0.03925     81.42899     -0.07189
      0.13622     -0.07189     -1.47340
  FORCES: max atom, RMS     0.046815    0.013732
  FORCE total and by dimension    0.111560    0.038708
  Stress total and by dimension  115.018814   81.428992
 Quasi-Newton relaxation of ions (Broydens 2nd method)
  g(Force)  = 0.153E-02   g(Stress)= 0.000E+00

 retain information from N=  5 steps
 eigenvalues of (default step * inverse Hessian matrix)
  average eigenvalue of G=   2.8839
 eigenvalue spectrum of G is  5.7209  5.7209  1.3363  1.1043  0.5373

 reached required accuracy - stopping structural energy minimisation