 vasp.5.4.4.18Apr17-6-g9f103f2a35 (build Nov 30 2020 22:55:02) complex

 executed on             LinuxIFC date 2023.09.15  11:04:52

 INCAR:
 POTCAR:    PAW_PBE Cu 22Jun2005
 POTCAR:    PAW_PBE Pt 04Feb2005
 POTCAR:    PAW_PBE H 15Jun2001

 POTCAR:    PAW_PBE Cu 22Jun2005
   VRHFIN =Cu: d10 p1

   TITEL  = PAW_PBE Cu 22Jun2005
   POMASS =   63.546; ZVAL   =   11.000    mass and valenz
   ENMAX  =  295.446; ENMIN  =  221.585 eV

 POTCAR:    PAW_PBE Pt 04Feb2005
   VRHFIN =Pt: s1d9

   TITEL  = PAW_PBE Pt 04Feb2005
   POMASS =  195.080; ZVAL   =   10.000    mass and valenz
   ENMAX  =  230.283; ENMIN  =  172.712 eV

 POTCAR:    PAW_PBE H 15Jun2001
   VRHFIN =H: ultrasoft test

   TITEL  = PAW_PBE H 15Jun2001
   POMASS =    1.000; ZVAL   =    1.000    mass and valenz
   ENMAX  =  250.000; ENMIN  =  200.000 eV

 Optimization of the real space projectors (new method)

 maximal supplied QI-value         = 16.25
 optimisation between [QCUT,QGAM] = [ 11.86, 23.89] = [ 39.41,159.82] Ry
 Optimized for a Real-space Cutoff    1.49 Angstroem

   l    n(q)    QCUT    max X(q) W(low)/X(q) W(high)/X(q)  e(spline)
   2     10    11.864     4.610    0.10E-03    0.20E-03    0.29E-06
   2     10    11.864     8.522    0.17E-03    0.33E-03    0.50E-06
   0     11    11.864    51.609    0.52E-04    0.55E-04    0.33E-06
   0     11    11.864    27.747    0.46E-04    0.52E-04    0.31E-06
   1     10    11.864    20.408    0.54E-04    0.25E-04    0.21E-06
   1     10    11.864    13.425    0.48E-04    0.22E-04    0.18E-06
 Optimization of the real space projectors (new method)

[...]

   l    n(q)    QCUT    max X(q) W(low)/X(q) W(high)/X(q)  e(spline)
   2     10    11.920    66.195    0.79E-04    0.18E-03    0.24E-06
   2     10    11.920    64.643    0.81E-04    0.19E-03    0.24E-06
   0     11    11.920    95.520    0.28E-04    0.54E-04    0.18E-06
   0     11    11.920    63.403    0.27E-04    0.52E-04    0.17E-06
   1     10    11.920    19.961    0.18E-04    0.11E-03    0.23E-06
   1     10    11.920    13.289    0.25E-04    0.87E-04    0.19E-06
 Optimization of the real space projectors (new method)

 maximal supplied QI-value         = 34.20
 optimisation between [QCUT,QGAM] = [ 11.97, 23.94] = [ 40.13,160.53] Ry
 Optimized for a Real-space Cutoff    1.18 Angstroem

   l    n(q)    QCUT    max X(q) W(low)/X(q) W(high)/X(q)  e(spline)
   0      8    11.971    19.460    0.15E-03    0.31E-03    0.25E-06
   0      8    11.971    12.209    0.13E-03    0.29E-03    0.25E-06
   1      8    11.971     4.655    0.22E-03    0.24E-03    0.21E-06
  PAW_PBE Cu 22Jun2005                  :
  PAW_PBE Pt 04Feb2005                  :
  PAW_PBE H 15Jun2001                   :

 POSCAR: Cu   Pt   H
  positions in cartesian coordinates
 exchange correlation table for  LEXCH =        8
   RHO(1)=    0.500       N(1)  =     2000
   RHO(2)=  100.500       N(2)  =     4000

 ion  position               nearest neighbor table
   1  0.785  0.869  0.314-  20 2.49  55 2.49  39 2.49  57 2.64  40 2.64  29 2.64   3 2.64  56 2.65
                             2 2.65  65 2.65  73 2.66  72 2.66
   2  0.035  0.869  0.314-  52 2.49  39 2.49  49 2.49  33 2.64   3 2.64  56 2.64  41 2.64  23 2.64
                             1 2.65  77 2.65  65 2.65  67 2.66
   3  0.035  0.619  0.314-  60 2.49  39 2.49  12 2.49   9 2.64  40 2.64  15 2.64   2 2.64   1 2.64
                            77 2.65  41 2.65  66 2.66  73 2.66
   4  0.786  0.868  0.045-  21 2.50  62 2.50  19 2.51  30 2.64  59 2.64  58 2.64  42 2.64   6 2.64
                             5 2.64
   5  0.036  0.868  0.045-  54 2.50  35 2.50  62 2.51  43 2.64   6 2.64  34 2.64  24 2.64  58 2.64
                             4 2.64
   6  0.036  0.618  0.045-  32 2.50  54 2.50  21 2.51   5 2.64  10 2.64  43 2.64   4 2.64  42 2.64
                            18 2.64
   7  0.619  0.202  0.135-  55 2.49  64 2.50  63 2.50  28 2.50  30 2.50  58 2.51  45 2.64  22 2.64
                            37 2.64  11 2.64  19 2.64  62 2.64
   8  0.369  0.952  0.135-  53 2.49  50 2.50  26 2.50  16 2.50  24 2.50  59 2.51  19 2.64  35 2.64
                            44 2.64  37 2.64  25 2.64  38 2.64
   9  0.035  0.369  0.314-  61 2.48  12 2.48  46 2.49  40 2.63  15 2.64   3 2.64  71 2.64  33 2.65
                            13 2.65  68 2.65  66 2.66  47 2.67
  10  0.036  0.368  0.045-  38 2.50  32 2.50  31 2.51  16 2.64   6 2.64  34 2.64  18 2.64  42 2.64
                            48 2.64
  11  0.869  0.202  0.135-  49 2.49  61 2.50  63 2.50  48 2.50  58 2.50  34 2.51  31 2.64  38 2.64
                            22 2.64  62 2.64   7 2.64  35 2.64
  12  0.952  0.536  0.225-   9 2.48  21 2.49  40 2.49   3 2.49  31 2.49  32 2.49  39 2.64  46 2.64
                            20 2.64  51 2.64  61 2.64  60 2.64
  13  0.285  0.119  0.314-  26 2.48  46 2.49  53 2.49  57 2.63  15 2.64  29 2.64  33 2.64   9 2.65
                            69 2.65  71 2.65  74 2.66  23 2.66
  14  0.535  0.618  0.316-  36 2.50  51 2.52  50 2.52  47 2.60  23 2.61  27 2.62  41 2.62  80 2.64
                            40 2.65  57 2.65  75 2.73  76 2.75
  15  0.285  0.369  0.314-  60 2.48  46 2.49  64 2.49   9 2.64  13 2.64   3 2.64  29 2.64  79 2.64
                            41 2.65  74 2.66  27 2.66  66 2.67
  16  0.286  0.118  0.045-   8 2.50  37 2.50  38 2.51  24 2.64  10 2.64  34 2.64  59 2.64  18 2.64
                            30 2.64
  17  0.536  0.618  0.045-  22 2.50  25 2.50  44 2.51  42 2.64  48 2.64  59 2.64  28 2.64  24 2.64
                            43 2.64
  18  0.286  0.368  0.045-  37 2.50  45 2.50  32 2.51  28 2.64  30 2.64  43 2.64  10 2.64  16 2.64
                             6 2.64
  19  0.619  0.952  0.135-  20 2.49  55 2.49  53 2.49  30 2.50  59 2.50   4 2.51  25 2.64   8 2.64
                            37 2.64  21 2.64   7 2.64  62 2.64
  20  0.702  0.785  0.225-   1 2.49  25 2.49  19 2.49  40 2.49  21 2.49  57 2.50  50 2.64  51 2.64
                            12 2.64  53 2.64  39 2.64  55 2.64
  21  0.869  0.702  0.135-  12 2.49  39 2.49  20 2.49   4 2.50  42 2.50   6 2.51  32 2.64  31 2.64
                            25 2.64  62 2.64  54 2.64  19 2.64
  22  0.619  0.452  0.135-  63 2.50  51 2.50  17 2.50  28 2.50  36 2.50  48 2.51  44 2.64  45 2.64
                             7 2.64  25 2.64  11 2.64  31 2.64
  23  0.287  0.866  0.316-  50 2.50  52 2.50  26 2.52  41 2.61  14 2.61  57 2.63   2 2.64  67 2.65
                            69 2.66  13 2.66  75 2.67  33 2.67
  24  0.286  0.868  0.045-  44 2.50   8 2.50  35 2.51  59 2.64  16 2.64  17 2.64  43 2.64   5 2.64
                            34 2.64
  25  0.619  0.702  0.135-  20 2.49  51 2.50  50 2.50  59 2.50  17 2.50  42 2.51  19 2.64  44 2.64
                             8 2.64  22 2.64  21 2.64  31 2.64
  26  0.203  0.034  0.225-  13 2.48  33 2.49  35 2.49   8 2.50  38 2.50  23 2.52  52 2.63  50 2.63
                            49 2.64  53 2.64  46 2.65  61 2.66
  27  0.536  0.370  0.316-  36 2.49  63 2.50  64 2.51  47 2.59  14 2.62  41 2.63  56 2.64  78 2.65
                            79 2.65  29 2.66  15 2.66  76 2.74
  28  0.536  0.368  0.045-   7 2.50  22 2.50  45 2.51  48 2.64  18 2.64  43 2.64  17 2.64  58 2.64
                            30 2.64
  29  0.535  0.119  0.314-  64 2.48  53 2.49  55 2.49  57 2.64  13 2.64  15 2.64  56 2.64   1 2.64
                            78 2.65  27 2.66  72 2.66  74 2.66
  30  0.536  0.118  0.045-  19 2.50   7 2.50  37 2.51   4 2.64  18 2.64  58 2.64  59 2.64  16 2.64
                            28 2.64
  31  0.869  0.452  0.135-  12 2.49  61 2.50  51 2.50  42 2.50  48 2.50  10 2.51  38 2.64  11 2.64
                            21 2.64  32 2.64  22 2.64  25 2.64
  32  0.119  0.452  0.135-  46 2.49  12 2.49  60 2.50   6 2.50  10 2.50  18 2.51  54 2.64  45 2.64
                            21 2.64  37 2.64  38 2.64  31 2.64
  33  0.035  0.119  0.314-  61 2.48  26 2.49  49 2.49   2 2.64  56 2.64  13 2.64   9 2.65  67 2.65
                            70 2.65  71 2.65  23 2.67  47 2.68
  34  0.036  0.118  0.045-  35 2.50  38 2.50  11 2.51  58 2.64  16 2.64   5 2.64  10 2.64  24 2.64
                            48 2.64
  35  0.119  0.952  0.135-  49 2.49  26 2.49  52 2.50  34 2.50   5 2.50  24 2.51   8 2.64  44 2.64
                            62 2.64  54 2.64  11 2.64  38 2.64
  36  0.452  0.536  0.226-  41 2.49  27 2.49  44 2.50  14 2.50  45 2.50  22 2.50  64 2.63  60 2.64
                            63 2.64  51 2.64  52 2.64  50 2.64
  37  0.369  0.202  0.135-  53 2.49  46 2.49  64 2.50  18 2.50  16 2.50  30 2.51  38 2.64  32 2.64
                             7 2.64   8 2.64  19 2.64  45 2.64
  38  0.119  0.202  0.135-  46 2.49  10 2.50  34 2.50  26 2.50  16 2.51  61 2.51  31 2.64  37 2.64
                            32 2.64  11 2.64   8 2.64  35 2.64
  39  0.952  0.785  0.225-   3 2.49   2 2.49  62 2.49  21 2.49   1 2.49  54 2.49  12 2.64  60 2.64
                            49 2.64  52 2.64  55 2.64  20 2.64
  40  0.786  0.618  0.314-  51 2.48  12 2.49  20 2.49   9 2.63  47 2.63  80 2.63   3 2.64   1 2.64
                            14 2.65  57 2.66  68 2.66  73 2.66
  41  0.286  0.620  0.315-  36 2.49  52 2.50  60 2.51  23 2.61  14 2.62  27 2.63   2 2.64  79 2.64
                             3 2.65  15 2.65  77 2.66  75 2.71
  42  0.786  0.618  0.045-  31 2.50  21 2.50  25 2.51  17 2.64  59 2.64  48 2.64   4 2.64   6 2.64
                            10 2.64
  43  0.286  0.618  0.045-  45 2.50  44 2.50  54 2.51  28 2.64   5 2.64  18 2.64  17 2.64  24 2.64
                             6 2.64
  44  0.369  0.702  0.135-  50 2.50  52 2.50  36 2.50  24 2.50  43 2.50  17 2.51  22 2.64  25 2.64
                            35 2.64   8 2.64  54 2.64  45 2.64
  45  0.369  0.452  0.135-  64 2.49  60 2.49  43 2.50  36 2.50  18 2.50  28 2.51  54 2.64  32 2.64
                             7 2.64  22 2.64  37 2.64  44 2.64
  46  0.202  0.285  0.225-  15 2.49  13 2.49  38 2.49  32 2.49   9 2.49  37 2.49  53 2.64  12 2.64
                            26 2.65  60 2.65  61 2.65  64 2.65
  47  0.781  0.372  0.316-  51 2.50  63 2.50  61 2.53  27 2.59  14 2.60  40 2.63  70 2.64  56 2.65
                            68 2.65   9 2.67  33 2.68  76 2.71
  48  0.786  0.368  0.045-  11 2.50  31 2.50  22 2.51  28 2.64  17 2.64  42 2.64  58 2.64  34 2.64
                            10 2.64
  49  0.952  0.036  0.225-  33 2.49  11 2.49   2 2.49  62 2.49  56 2.49  35 2.49  61 2.64  26 2.64
                            55 2.64  39 2.64  52 2.64  63 2.64
  50  0.452  0.786  0.225-  57 2.48  23 2.50   8 2.50  44 2.50  25 2.50  14 2.52  26 2.63  52 2.64
                            20 2.64  36 2.64  53 2.64  51 2.64
  51  0.702  0.535  0.225-  40 2.48  47 2.50  22 2.50  25 2.50  31 2.50  14 2.52  61 2.63  63 2.63
                            36 2.64  20 2.64  12 2.64  50 2.64
  52  0.202  0.786  0.225-   2 2.49  35 2.50  44 2.50  54 2.50  41 2.50  23 2.50  26 2.63  60 2.64
                            50 2.64  36 2.64  49 2.64  39 2.64
  53  0.452  0.036  0.225-  57 2.49  13 2.49  37 2.49  29 2.49   8 2.49  19 2.49  55 2.64  46 2.64
                            20 2.64  50 2.64  26 2.64  64 2.65
[...]
      1.007995  1.082290  0.987966            0           0           0
      6.283781  8.706163  2.976135            0           0           0
      7.603312  4.897338  4.962269            0           0           0
      4.963537  1.847473  2.976285            0           0           0
      2.323737  1.847712  2.976412            0           0           0
     14.202600  7.183179  4.947239            0           0           0
     11.563945  5.654774  6.916599            0           0           0
      6.291891  5.665534  6.938021            0           0           0
     11.567787  5.654966  0.987763            0           0           0
      6.288344  5.654902  0.987657            0           0           0
      7.603883  6.420029  2.976043            0           0           0
      6.283603  4.133811  2.976267            0           0           0
      3.639054  2.609870  4.945755            0           0           0
     10.207676  3.401823  6.955571            0           0           0
     10.247721  3.368782  0.987752            0           0           0
     10.242733  0.325675  4.945478            0           0           0
      8.920658  7.184516  4.955119            0           0           0
     10.241865  4.895253  4.955749            0           0           0
      6.284740  7.183780  4.954187            0           0           0
      4.962995  0.326164  4.945437            0           0           0
      4.963870  6.419733  2.976344            0           0           0
      7.601501  0.326121  4.946665            0           0           0
      8.920452  1.090545  6.913353            0           0           0
     10.236291  7.955679  6.915882            0           0           0
      8.928128  1.082181  0.988024            0           0           0
     10.247734  7.941044  0.987266            0           0           0
      4.967797  4.900685  4.952303            0           0           0
[...]
     11.581376  4.135775  9.100247            0           0           0
      8.922237  8.740758  9.100013            0           0           0
     10.243422  1.851340  9.086759            0           0           0
      2.324268  1.862406  9.075242            0           0           0
     11.560799  8.720562  9.097580            0           0           0
     12.884153  6.431460  9.094531            0           0           0
      4.956157  1.857808  9.093697            0           0           0
      7.578040  6.464142  9.186027            0           0           0
      8.934173  4.117294  9.237205            0           0           0
      4.938024  6.439811  9.091296            0           0           0
      7.596601  1.835422  9.089839            0           0           0
      6.248209  4.127287  9.089047            0           0           0
     10.273717  6.451655  9.070504            0           0           0
      7.868924  5.074166 10.662320     0.582568    0.348474    0.151094
      8.653487  5.517348 10.666689     0.603512    0.329178   -0.209201

   4 f/i=   13.169152 THz    82.744222 2PiTHz  439.275610 cm-1    54.463254 meV
             X         Y         Z           dx          dy          dz
     12.873883  7.944997  6.912700            0           0           0
      4.961369  7.947876  6.914037            0           0           0
      3.641964  5.661134  6.915852            0           0           0
     12.887720  7.941333  0.987864            0           0           0
      4.968284  7.940902  0.987883            0           0           0
      3.648115  5.654910  0.987889            0           0           0
      7.603449  1.847659  2.976120            0           0           0
      8.923598  8.706422  2.976146            0           0           0
      2.318998  3.379122  6.912368            0           0           0
      2.328399  3.368554  0.987894            0           0           0
     10.243665  1.847492  2.976312            0           0           0
     12.883044  4.898287  4.945946            0           0           0
      3.641865  1.086220  6.911889            0           0           0
      8.916311  5.655705  6.954027            0           0           0
      4.955967  3.373384  6.912257            0           0           0
      3.647896  1.082252  0.987910            0           0           0
      8.928362  5.654909  0.987490            0           0           0
      4.968684  3.368453  0.987734            0           0           0
     11.563289  8.706198  2.976004            0           0           0
     11.558726  7.182048  4.946676            0           0           0
     12.883675  6.419743  2.976164            0           0           0
      8.923477  4.133841  2.976139            0           0           0
      7.605340  7.916126  6.945941            0           0           0
      7.608531  7.941230  0.987539            0           0           0
     10.243612  6.420120  2.976148            0           0           0
      2.319874  0.314134  4.956465            0           0           0
      7.613599  3.386603  6.945591            0           0           0
      7.608220  3.368816  0.987541            0           0           0
      6.280641  1.090092  6.915462            0           0           0
      6.288209  1.082052  0.987641            0           0           0
     11.563944  4.133428  2.976108            0           0           0
      3.643879  4.133784  2.976377            0           0           0
      0.997190  1.087487  6.913045            0           0           0
      1.007995  1.082290  0.987966            0           0           0
      6.283781  8.706163  2.976135            0           0           0
      7.603312  4.897338  4.962269            0           0           0
      4.963537  1.847473  2.976285            0           0           0
      2.323737  1.847712  2.976412            0           0           0
     14.202600  7.183179  4.947239            0           0           0
     11.563945  5.654774  6.916599            0           0           0
      6.291891  5.665534  6.938021            0           0           0
     11.567787  5.654966  0.987763            0           0           0
      6.288344  5.654902  0.987657            0           0           0
      7.603883  6.420029  2.976043            0           0           0
      6.283603  4.133811  2.976267            0           0           0
      3.639054  2.609870  4.945755            0           0           0
     10.207676  3.401823  6.955571            0           0           0
     10.247721  3.368782  0.987752            0           0           0
     10.242733  0.325675  4.945478            0           0           0
      8.920658  7.184516  4.955119            0           0           0
     10.241865  4.895253  4.955749            0           0           0
      6.284740  7.183780  4.954187            0           0           0
      4.962995  0.326164  4.945437            0           0           0
      4.963870  6.419733  2.976344            0           0           0
      7.601501  0.326121  4.946665            0           0           0
      8.920452  1.090545  6.913353            0           0           0
     10.236291  7.955679  6.915882            0           0           0
      8.928128  1.082181  0.988024            0           0           0
     10.247734  7.941044  0.987266            0           0           0
      4.967797  4.900685  4.952303            0           0           0
[...]
     11.581376  4.135775  9.100247            0           0           0
      8.922237  8.740758  9.100013            0           0           0
     10.243422  1.851340  9.086759            0           0           0
      2.324268  1.862406  9.075242            0           0           0
     11.560799  8.720562  9.097580            0           0           0
     12.884153  6.431460  9.094531            0           0           0
      4.956157  1.857808  9.093697            0           0           0
      7.578040  6.464142  9.186027            0           0           0
      8.934173  4.117294  9.237205            0           0           0
      4.938024  6.439811  9.091296            0           0           0
      7.596601  1.835422  9.089839            0           0           0
      6.248209  4.127287  9.089047            0           0           0
     10.273717  6.451655  9.070504            0           0           0
      7.868924  5.074166 10.662320    -0.404034    0.683845   -0.071356
      8.653487  5.517348 10.666689    -0.291572    0.525693   -0.051515

[...]

   6 f/i=   23.000466 THz   144.516189 2PiTHz  767.212933 cm-1    95.122315 meV
             X         Y         Z           dx          dy          dz
     12.873883  7.944997  6.912700            0           0           0
      4.961369  7.947876  6.914037            0           0           0
      3.641964  5.661134  6.915852            0           0           0
     12.887720  7.941333  0.987864            0           0           0
      4.968284  7.940902  0.987883            0           0           0
      3.648115  5.654910  0.987889            0           0           0
      7.603449  1.847659  2.976120            0           0           0
      8.923598  8.706422  2.976146            0           0           0
      2.318998  3.379122  6.912368            0           0           0
      2.328399  3.368554  0.987894            0           0           0
     10.243665  1.847492  2.976312            0           0           0
     12.883044  4.898287  4.945946            0           0           0
      3.641865  1.086220  6.911889            0           0           0
      8.916311  5.655705  6.954027            0           0           0
      4.955967  3.373384  6.912257            0           0           0
      3.647896  1.082252  0.987910            0           0           0
      8.928362  5.654909  0.987490            0           0           0
      4.968684  3.368453  0.987734            0           0           0
     11.563289  8.706198  2.976004            0           0           0
     11.558726  7.182048  4.946676            0           0           0
     12.883675  6.419743  2.976164            0           0           0
      8.923477  4.133841  2.976139            0           0           0
      7.605340  7.916126  6.945941            0           0           0
      7.608531  7.941230  0.987539            0           0           0
     10.243612  6.420120  2.976148            0           0           0
      2.319874  0.314134  4.956465            0           0           0
      7.613599  3.386603  6.945591            0           0           0
      7.608220  3.368816  0.987541            0           0           0
      6.280641  1.090092  6.915462            0           0           0
      6.288209  1.082052  0.987641            0           0           0
     11.563944  4.133428  2.976108            0           0           0
      3.643879  4.133784  2.976377            0           0           0
      0.997190  1.087487  6.913045            0           0           0
      1.007995  1.082290  0.987966            0           0           0
      6.283781  8.706163  2.976135            0           0           0
      7.603312  4.897338  4.962269            0           0           0
      4.963537  1.847473  2.976285            0           0           0
      2.323737  1.847712  2.976412            0           0           0
     14.202600  7.183179  4.947239            0           0           0
     11.563945  5.654774  6.916599            0           0           0
      6.291891  5.665534  6.938021            0           0           0
     11.567787  5.654966  0.987763            0           0           0
      6.288344  5.654902  0.987657            0           0           0
      7.603883  6.420029  2.976043            0           0           0
      6.283603  4.133811  2.976267            0           0           0
      3.639054  2.609870  4.945755            0           0           0
     10.207676  3.401823  6.955571            0           0           0
     10.247721  3.368782  0.987752            0           0           0
     10.242733  0.325675  4.945478            0           0           0
      8.920658  7.184516  4.955119            0           0           0
     10.241865  4.895253  4.955749            0           0           0
      6.284740  7.183780  4.954187            0           0           0
      4.962995  0.326164  4.945437            0           0           0
      4.963870  6.419733  2.976344            0           0           0
      7.601501  0.326121  4.946665            0           0           0
      8.920452  1.090545  6.913353            0           0           0
     10.236291  7.955679  6.915882            0           0           0
      8.928128  1.082181  0.988024            0           0           0
     10.247734  7.941044  0.987266            0           0           0
      4.967797  4.900685  4.952303            0           0           0
[...]
     11.581376  4.135775  9.100247            0           0           0
      8.922237  8.740758  9.100013            0           0           0
     10.243422  1.851340  9.086759            0           0           0
      2.324268  1.862406  9.075242            0           0           0
     11.560799  8.720562  9.097580            0           0           0
     12.884153  6.431460  9.094531            0           0           0
      4.956157  1.857808  9.093697            0           0           0
      7.578040  6.464142  9.186027            0           0           0
      8.934173  4.117294  9.237205            0           0           0
      4.938024  6.439811  9.091296            0           0           0
      7.596601  1.835422  9.089839            0           0           0
      6.248209  4.127287  9.089047            0           0           0
     10.273717  6.451655  9.070504            0           0           0
      7.868924  5.074166 10.662320    -0.141134   -0.176549   -0.686382
      8.653487  5.517348 10.666689     0.151608    0.046179   -0.672810

 Finite differences POTIM=  1.000000000000000E-002
  LATTYP: Found a hexagonal cell.
 ALAT       =    10.5600004196
 C/A-ratio  =     2.0833332505

  Lattice vectors:

 A1 = (   5.2800002098,  -9.1452286274,   0.0000000000)
 A2 = ( -10.5600004196,   0.0000000000,   0.0000000000)
 A3 = (   0.0000000000,   0.0000000000, -22.0000000000)

Analysis of symmetry for initial positions (statically):
 Subroutine PRICEL returns:
 Original cell was already a primitive cell.

[...]

The static configuration has the point symmetry C_1 .

Analysis of symmetry for dynamics (positions and initial velocities):
 Subroutine PRICEL returns:
 Original cell was already a primitive cell.

[...]

The dynamic configuration has the point symmetry C_1 .

Analysis of constrained symmetry for selective dynamics:
 Subroutine PRICEL returns:
 Original cell was already a primitive cell.

[...]

The constrained configuration has the point symmetry C_1 .

Analysis of structural, dynamic, and magnetic symmetry:
 Subroutine PRICEL returns:
 Original cell was already a primitive cell.

 Routine SETGRP: Setting up the symmetry group for a
 hexagonal supercell.

 Subroutine GETGRP returns: Found  1 space group operations
 (whereof  1 operations were pure point group operations)
 out of a pool of 24 trial point group operations.

The magnetic configuration has the point symmetry C_1 .

 Subroutine INISYM returns: Found  1 space group operations
 (whereof  1 operations are pure point group operations),
 and found     1 'primitive' translations

 KPOINTS: mesh auto

Automatic generation of k-mesh.
Space group operators:
 irot       det(A)        alpha          n_x          n_y          n_z        tau_x        tau_y        tau_z
    1     1.000000     0.000001     1.000000     0.000000     0.000000     0.000000     0.000000     0.000000

 Subroutine IBZKPT returns following result:

 Found      4 irreducible k-points:

 Following reciprocal coordinates:
            Coordinates               Weight
  0.000000  0.000000  0.000000      1.000000
  0.500000  0.000000  0.000000      1.000000
  0.000000  0.500000  0.000000      1.000000
  0.500000  0.500000  0.000000      1.000000

 Following cartesian coordinates:
            Coordinates               Weight
  0.000000  0.000000  0.000000      1.000000
  0.047348 -0.027337  0.000000      1.000000
  0.000000  0.054673  0.000000      1.000000
  0.047348  0.027337  0.000000      1.000000

 TETIRR: Found     12 inequivalent tetrahedra from       24
 BZINTS: Fermi energy:  1.251994;866.000000 electrons
         Band energy:***********;  BLOECHL correction: -0.004175