 vasp.5.4.4.18Apr17-6-g9f103f2a35 (build Nov 30 2020 22:55:02) complex

 executed on             LinuxIFC date 2023.08.07  23:03:35

 INCAR:
 POTCAR:    PAW_PBE Pt 04Feb2005
 POTCAR:    PAW_PBE H 15Jun2001
 POTCAR:    PAW_PBE Pt 04Feb2005
   VRHFIN =Pt: s1d9

   TITEL  = PAW_PBE Pt 04Feb2005
   POMASS =  195.080; ZVAL   =   10.000    mass and valenz
   ENMAX  =  230.283; ENMIN  =  172.712 eV

 POTCAR:    PAW_PBE H 15Jun2001
   VRHFIN =H: ultrasoft test

   TITEL  = PAW_PBE H 15Jun2001
   POMASS =    1.000; ZVAL   =    1.000    mass and valenz
   ENMAX  =  250.000; ENMIN  =  200.000 eV

 Optimization of the real space projectors (new method)

 maximal supplied QI-value         = 14.36
 optimisation between [QCUT,QGAM] = [ 11.92, 23.98] = [ 39.79,161.09] Ry
 Optimized for a Real-space Cutoff    1.49 Angstroem

   l    n(q)    QCUT    max X(q) W(low)/X(q) W(high)/X(q)  e(spline)
   2     10    11.920    66.195    0.79E-04    0.18E-03    0.24E-06
   2     10    11.920    64.643    0.81E-04    0.19E-03    0.24E-06
   0     11    11.920    95.520    0.28E-04    0.54E-04    0.18E-06
   0     11    11.920    63.403    0.27E-04    0.52E-04    0.17E-06
   1     10    11.920    19.961    0.18E-04    0.11E-03    0.23E-06
   1     10    11.920    13.289    0.25E-04    0.87E-04    0.19E-06
 Optimization of the real space projectors (new method)

 maximal supplied QI-value         = 34.20
 optimisation between [QCUT,QGAM] = [ 11.97, 23.94] = [ 40.13,160.53] Ry
 Optimized for a Real-space Cutoff    1.18 Angstroem

   l    n(q)    QCUT    max X(q) W(low)/X(q) W(high)/X(q)  e(spline)
   0      8    11.971    19.460    0.15E-03    0.31E-03    0.25E-06
   0      8    11.971    12.209    0.13E-03    0.29E-03    0.25E-06
   1      8    11.971     4.655    0.22E-03    0.24E-03    0.21E-06
  PAW_PBE Pt 04Feb2005                  :
  PAW_PBE H 15Jun2001                   :

 POSCAR: Pt111\(1\1\1)\(2)
  positions in direct lattice
  velocities in cartesian coordinates
 exchange correlation table for  LEXCH =        8
   RHO(1)=    0.500       N(1)  =     2000
   RHO(2)=  100.500       N(2)  =     4000

 ion  position               nearest neighbor table
   1  1.000  0.000  0.056-   5 2.64   9 2.64  13 2.64  29 2.64  57 2.64  37 2.64  42 2.82  54 2.83
                            14 2.91
   2  0.333  0.169  0.179-  14 2.62  26 2.62   6 2.63  42 2.64  30 2.64  38 2.67  11 2.79   7 2.82
                             9 2.89  21 2.90  13 2.92  15 3.02
   3  0.168  0.334  0.310-  43 2.62  15 2.62  39 2.62   7 2.62  31 2.66  27 2.66   8 2.71   6 2.79
                            48 2.99  12 2.99  14 3.02  10 3.03
   4  0.001  0.001  0.415-   8 2.64  16 2.64  32 2.64  12 2.64  40 2.65  60 2.65   7 2.80  27 2.83
                            63 2.90
   5  1.000  0.250  0.056-   1 2.64  45 2.64  33 2.64   9 2.64  29 2.64  25 2.64  18 2.85  10 2.90
                            14 2.90
   6  0.333  0.417  0.193-  26 2.63  62 2.63  34 2.63  10 2.63  14 2.63   2 2.63  43 2.79   3 2.79
                            15 2.79  49 3.14   9 3.14  45 3.14
   7  0.169  0.087  0.298-  15 2.62   3 2.62  11 2.64  27 2.64  35 2.67  63 2.67  16 2.80   4 2.80
                             2 2.82  14 2.82  42 2.92  12 3.16
   8  1.000  0.250  0.422-   4 2.64  36 2.64  32 2.64  28 2.64  48 2.66  12 2.66   3 2.71  27 2.94
                            31 2.94
   9  0.250  0.250  0.056-  21 2.64  13 2.64   1 2.64  49 2.64  45 2.64   5 2.64  14 2.89   2 2.89
                             6 3.14
  10  0.086  0.417  0.179-  34 2.62  14 2.62   6 2.63  46 2.64  18 2.65  22 2.67  31 2.79  39 2.82
                            45 2.89   5 2.90  33 2.91   3 3.03
  11  0.417  0.085  0.296-  19 2.62   7 2.64  35 2.64  23 2.64  15 2.66  47 2.66   2 2.79  30 2.82
                            16 2.83  38 2.86  20 2.87  24 2.94
  12  0.248  0.246  0.439-  65 1.86   4 2.64  16 2.64   8 2.66  24 2.66  48 2.70  52 2.70  15 2.99
                             3 2.99   7 3.16
  13  0.250  0.000  0.056-  21 2.64   9 2.64  17 2.64   1 2.64  37 2.64  41 2.64  42 2.82  38 2.83
                             2 2.92
  14  0.086  0.169  0.179-   2 2.62  10 2.62   6 2.63  42 2.64  18 2.64  54 2.67  27 2.79   7 2.82
                             9 2.89   5 2.90   1 2.91   3 3.02
  15  0.416  0.334  0.310-  43 2.62   3 2.62  55 2.62   7 2.62  19 2.66  11 2.66  24 2.71   6 2.79
                            52 2.99  12 2.99   2 3.02  26 3.03
  16  0.250  0.001  0.415-  24 2.64   4 2.64  20 2.64  12 2.64  40 2.65  44 2.65   7 2.80  11 2.83
                            35 2.90
  17  0.500  0.000  0.056-  29 2.64  25 2.64  13 2.64  21 2.64  41 2.64  53 2.64  38 2.83  30 2.86
                            58 2.86
  18  0.834  0.167  0.177-  54 2.64  22 2.64  14 2.64  10 2.65  58 2.66  30 2.66  31 2.82  27 2.82
                            23 2.84   5 2.85  29 2.86  25 2.86
  19  0.665  0.333  0.296-  11 2.62  55 2.64  59 2.64  23 2.64  15 2.66  31 2.66  26 2.79  30 2.82
                            64 2.83  22 2.86  28 2.87  24 2.94
  20  0.500  1.000  0.417-  24 2.64  56 2.64  32 2.64  28 2.64  16 2.64  44 2.64  23 2.86  47 2.87
                            11 2.87
  21  0.500  0.250  0.056-  25 2.64  61 2.64   9 2.64  13 2.64  49 2.64  17 2.64  30 2.85  26 2.90
                             2 2.90
  22  0.833  0.416  0.175-  18 2.64  30 2.64  50 2.64  46 2.64  26 2.67  10 2.67  59 2.79  25 2.83
                            61 2.83  33 2.83  19 2.86  31 2.86
  23  0.667  0.083  0.296-  47 2.64  11 2.64  51 2.64  27 2.64  19 2.64  31 2.64  58 2.84  18 2.84
                            30 2.84  20 2.86  28 2.86  32 2.86
  24  0.500  0.250  0.422-  16 2.64  64 2.64  20 2.64  28 2.64  52 2.66  12 2.66  15 2.71  11 2.94
                            19 2.94
  25  0.750  0.250  0.056-  17 2.64  21 2.64  29 2.64  61 2.64  33 2.64   5 2.64  22 2.83  18 2.86
                            30 2.86
  26  0.581  0.417  0.179-  62 2.62   2 2.62   6 2.63  50 2.64  30 2.65  22 2.67  19 2.79  55 2.82
                            49 2.89  21 2.90  61 2.91  15 3.03
  27  0.918  0.085  0.296-  31 2.62   7 2.64  63 2.64  23 2.64   3 2.66  51 2.66  14 2.79  18 2.82
                             4 2.83  54 2.86  32 2.87   8 2.94
  28  0.750  0.250  0.417-  24 2.64   8 2.64  32 2.64  20 2.64  64 2.64  36 2.64  23 2.86  31 2.87
                            19 2.87
  29  0.750  0.000  0.056-  17 2.64  25 2.64   5 2.64  53 2.64   1 2.64  57 2.64  54 2.83  18 2.86
                            58 2.86
  30  0.583  0.167  0.177-  38 2.64  22 2.64   2 2.64  26 2.65  58 2.66  18 2.66  19 2.82  11 2.82
                            23 2.84  21 2.85  17 2.86  25 2.86
  31  0.918  0.333  0.296-  27 2.62  39 2.64  59 2.64  23 2.64   3 2.66  19 2.66  10 2.79  18 2.82
                            36 2.83  22 2.86  28 2.87   8 2.94
  32  0.750  1.000  0.417-  56 2.64   8 2.64  20 2.64  28 2.64  60 2.64   4 2.64  23 2.86  51 2.87
                            27 2.87
  33  1.000  0.500  0.056-  37 2.64  41 2.64   5 2.64  45 2.64  25 2.64  61 2.64  46 2.82  22 2.83
                            10 2.91
  34  0.333  0.664  0.179-  10 2.62  62 2.62   6 2.63  46 2.64  58 2.64  38 2.67  47 2.79  39 2.82
                            45 2.89  53 2.90  41 2.91  43 3.03
  35  0.168  0.834  0.292-  11 2.64  47 2.64  59 2.66  63 2.66  39 2.67   7 2.67  38 2.79  46 2.81
                            42 2.81  40 2.82  16 2.90  44 2.90
  36  0.001  0.500  0.415-   8 2.64  44 2.64  28 2.64  48 2.64  40 2.65  64 2.65  39 2.80  31 2.83
                            59 2.90
  37  1.000  0.750  0.056-  33 2.64  41 2.64  61 2.64  57 2.64  13 2.64   1 2.64  46 2.83  42 2.83
                            50 2.83
  38  0.334  0.917  0.175-  30 2.64  58 2.64  42 2.64  46 2.64   2 2.67  34 2.67  35 2.79  17 2.83
                            41 2.83  13 2.83  11 2.86  47 2.86
  39  0.169  0.581  0.298-   3 2.62  43 2.62  47 2.64  31 2.64  35 2.67  59 2.67  36 2.80  44 2.80
                            34 2.82  10 2.82  46 2.92  48 3.16
  40  0.000  0.750  0.410-   4 2.65  16 2.65  60 2.65  44 2.65  64 2.65  36 2.65  63 2.82  59 2.82
                            35 2.82
  41  0.250  0.750  0.056-  45 2.64  33 2.64  37 2.64  53 2.64  17 2.64  13 2.64  46 2.82  38 2.83
                            34 2.91
  42  0.084  0.918  0.175-   2 2.64  38 2.64  14 2.64  54 2.64  46 2.66  50 2.66  63 2.81  35 2.81
                            13 2.82   1 2.82  37 2.83   7 2.92
  43  0.416  0.582  0.310-  15 2.62   3 2.62  55 2.62  39 2.62  51 2.66  47 2.66  56 2.71   6 2.79
                            48 2.99  52 2.99  62 3.03  34 3.03
  44  0.250  0.749  0.415-  56 2.64  36 2.64  20 2.64  48 2.64  40 2.65  16 2.65  39 2.80  47 2.83
                            35 2.90
  45  0.250  0.500  0.056-  41 2.64  53 2.64   5 2.64   9 2.64  49 2.64  33 2.64  10 2.89  34 2.89
                             6 3.14
  46  0.084  0.666  0.175-  38 2.64  22 2.64  34 2.64  10 2.64  42 2.66  50 2.66  35 2.81  59 2.81
                            41 2.82  33 2.82  37 2.83  39 2.92
  47  0.417  0.832  0.296-  51 2.62  39 2.64  35 2.64  23 2.64  43 2.66  11 2.66  34 2.79  58 2.82
                            44 2.83  38 2.86  20 2.87  56 2.94
  48  0.248  0.502  0.439-  65 1.86  36 2.64  44 2.64   8 2.66  56 2.66  12 2.70  52 2.70  43 2.99
                             3 2.99  39 3.16
  49  0.500  0.500  0.056-  61 2.64  53 2.64  57 2.64  21 2.64   9 2.64  45 2.64  26 2.89  62 2.89
                             6 3.14
  50  0.832  0.666  0.175-  54 2.64  22 2.64  62 2.64  26 2.64  46 2.66  42 2.66  63 2.81  59 2.81
                            61 2.82  57 2.82  37 2.83  55 2.92
  51  0.665  0.832  0.296-  47 2.62  55 2.64  63 2.64  23 2.64  43 2.66  27 2.66  62 2.79  58 2.82
                            60 2.83  54 2.86  32 2.87  56 2.94
  52  0.504  0.502  0.439-  65 1.86  64 2.64  60 2.64  24 2.66  56 2.66  12 2.70  48 2.70  43 2.99
                            15 2.99  55 3.16
  53  0.500  0.750  0.056-  49 2.64  57 2.64  45 2.64  41 2.64  29 2.64  17 2.64  58 2.85  34 2.90
                            62 2.90
  54  0.833  0.917  0.175-  18 2.64  58 2.64  50 2.64  42 2.64  62 2.67  14 2.67  63 2.79  29 2.83
                            57 2.83   1 2.83  27 2.86  51 2.86
  55  0.663  0.581  0.298-  43 2.62  15 2.62  51 2.64  19 2.64  59 2.67  63 2.67  64 2.80  60 2.80
                            26 2.82  62 2.82  50 2.92  52 3.16
  56  0.500  0.750  0.422-  60 2.64  44 2.64  32 2.64  20 2.64  52 2.66  48 2.66  43 2.71  51 2.94
                            47 2.94
  57  0.750  0.750  0.056-  61 2.64  49 2.64  53 2.64  37 2.64   1 2.64  29 2.64  50 2.82  54 2.83
                            62 2.91
  58  0.583  0.916  0.177-  38 2.64  54 2.64  34 2.64  62 2.64  30 2.66  18 2.66  47 2.82  51 2.82
                            23 2.84  53 2.85  17 2.86  29 2.86
  59  0.916  0.582  0.292-  31 2.64  19 2.64  63 2.66  35 2.66  55 2.67  39 2.67  22 2.79  46 2.81
                            50 2.81  40 2.82  64 2.90  36 2.90
  60  0.749  0.749  0.415-  56 2.64  64 2.64  32 2.64  52 2.64  40 2.65   4 2.65  55 2.80  51 2.83
                            63 2.90
[...]
 total charge-density along one line

------------------------ aborting loop because EDIFF is reached ----------------------------------------

         DFTD3 V3.0 Rev 1
 IVDW         = 11
 DF pbe
 parameters
 VDW_S6       =    1.0000
 VDW_S8       =    0.7220
 VDW_SR       =    1.2170
 rs18     =    1.0000
 alpha6   =   14.0000
 alpha8   =   16.0000
 k1-k3    =   16.0000    1.3333   -4.0000
 VDW_RADIUS   =   50.2022 A
 VDW_CNRADIUS =   21.1671 A
 Edisp (eV)  -38.62205

 E6    (eV) :   -14.2552
 E8    (eV) :   -24.3669
 % E8        : 63.09

  FORCE on cell =-STRESS in cart. coord.  units (eV):
  Direction    XX          YY          ZZ          XY          YZ          ZX
  Alpha Z  2019.82281  2019.82281  2019.82281
  Ewald  161387.76802161388.43599************     0.16151     0.16055    -0.08621
  Hartree172355.31083172355.58304************     0.07031     0.04239    -0.02600
  E(xc)   -2858.33571 -2858.33001 -2883.70503     0.00110     0.00202    -0.00079
  Local  ************************355706.10560    -0.19998    -0.14139     0.08536
  n-local   567.89166   567.95860   312.52752     0.01090    -0.00530    -0.00071
  augment  3256.40971  3256.33126  3528.23398    -0.01565    -0.02061     0.00918
  Kinetic  9163.74781  9163.58841  9740.42415    -0.03236    -0.05070     0.02173
  Fock        0.00000     0.00000     0.00000     0.00000     0.00000     0.00000
  vdW       -53.08340   -53.09015   -28.32119    -0.00129     0.00115    -0.00032
  Total      77.14743    77.12719    -0.69135    -0.00546    -0.01189     0.00224
  in kB      63.99463    63.97784    -0.57348    -0.00453    -0.00986     0.00186

 VOLUME and BASIS-vectors are now :
  energy-cutoff  :      550.00
  volume of cell :     1931.47
      direct lattice vectors                 reciprocal lattice vectors
    10.560000420  0.000000000  0.000000000     0.094696966  0.054673319  0.000000000
    -5.280000210  9.145228627  0.000000000     0.000000000  0.109346638  0.000000000
     0.000000000  0.000000000 20.000000000     0.000000000  0.000000000  0.050000000

  length of vectors
    10.560000420 10.560000420 20.000000000     0.109346638  0.109346638  0.050000000

 FORCES acting on ions
    electron-ion (+dipol)            ewald-force                    non-local-force                 convergence-correction
   -.521E+00 -.164E+02 0.231E+04   0.601E+00 0.164E+02 -.231E+04   -.540E-01 0.875E-01 -.264E+00   0.177E-03 0.175E-03 0.154E-03
   0.701E+01 -.234E+02 0.767E+03   -.718E+01 0.236E+02 -.766E+03   0.196E+00 -.257E+00 -.469E+00   -.146E-03 -.148E-03 0.374E-03
   -.108E+01 -.639E+00 -.914E+03   0.111E+01 0.659E+00 0.914E+03   -.700E-01 -.420E-01 0.138E+00   0.152E-04 0.854E-04 0.437E-03
   0.407E+01 0.344E+02 -.225E+04   -.396E+01 -.340E+02 0.225E+04   -.117E+00 -.429E+00 -.225E-01   0.126E-03 -.100E-04 -.141E-03
   -.156E+02 -.896E+01 0.230E+04   0.158E+02 0.909E+01 -.230E+04   -.530E-01 -.310E-01 -.145E-01   0.236E-03 0.170E-03 0.555E-04
   0.326E-01 0.380E-01 0.626E+03   -.325E-01 -.381E-01 -.624E+03   -.102E-02 -.155E-02 -.149E+01   -.947E-04 -.135E-03 0.394E-03
   0.795E-01 -.396E+01 -.771E+03   -.796E-01 0.444E+01 0.771E+03   -.677E-03 -.455E+00 0.856E-01   -.363E-05 -.199E-03 0.224E-03
   0.353E+02 0.203E+02 -.229E+04   -.349E+02 -.200E+02 0.229E+04   -.429E+00 -.247E+00 0.302E+00   0.190E-03 0.321E-03 0.137E-04
   0.818E-04 -.255E+02 0.228E+04   -.106E-03 0.257E+02 -.228E+04   0.170E-03 0.174E-01 0.111E+00   -.109E-03 -.411E-04 -.120E-04
   -.237E+02 0.571E+01 0.767E+03   0.240E+02 -.569E+01 -.767E+03   -.324E+00 -.412E-01 -.466E+00   -.110E-03 0.171E-04 0.337E-03
   0.981E-01 -.957E+00 -.742E+03   -.127E+00 0.112E+01 0.741E+03   0.535E-01 -.166E+00 0.420E+00   -.113E-03 -.698E-04 0.300E-03
   -.846E-02 0.575E+02 -.239E+04   0.825E-02 -.579E+02 0.239E+04   0.331E-03 0.452E+00 -.904E-01   0.175E-04 0.347E-03 -.238E-04
   0.550E+00 -.164E+02 0.231E+04   -.631E+00 0.164E+02 -.231E+04   0.540E-01 0.876E-01 -.264E+00   -.168E-03 0.532E-04 0.101E-03
   -.692E+01 -.233E+02 0.767E+03   0.709E+01 0.236E+02 -.766E+03   -.196E+00 -.258E+00 -.468E+00   0.494E-04 -.122E-03 0.321E-03
   0.116E+01 -.674E+00 -.914E+03   -.119E+01 0.694E+00 0.914E+03   0.693E-01 -.422E-01 0.137E+00   0.215E-04 0.650E-04 0.475E-03
   -.407E+01 0.345E+02 -.225E+04   0.396E+01 -.340E+02 0.225E+04   0.117E+00 -.429E+00 -.221E-01   -.394E-04 -.235E-04 -.108E-03
   -.110E+01 -.599E+00 0.231E+04   0.107E+01 0.584E+00 -.231E+04   0.178E-02 0.346E-03 -.313E+00   -.214E-03 -.574E-04 0.111E-03
   -.469E+01 -.271E+01 0.793E+03   0.487E+01 0.281E+01 -.793E+03   -.201E+00 -.114E+00 -.411E+00   0.127E-03 0.825E-04 0.446E-03
   0.769E+00 0.322E+00 -.741E+03   -.927E+00 -.380E+00 0.741E+03   0.173E+00 0.376E-01 0.421E+00   0.695E-04 0.267E-03 0.357E-03
   0.144E+01 0.771E+00 -.228E+04   -.143E+01 -.769E+00 0.228E+04   -.422E-02 0.531E-03 0.735E-01   -.707E-04 -.153E-03 -.364E-04
   0.156E+02 -.898E+01 0.230E+04   -.158E+02 0.911E+01 -.230E+04   0.532E-01 -.311E-01 -.140E-01   -.225E-03 0.153E-04 0.173E-04
   -.129E-01 0.614E+01 0.807E+03   0.125E-01 -.613E+01 -.807E+03   0.369E-03 -.161E-01 -.255E+00   0.865E-04 0.193E-03 0.550E-03
   -.104E+00 -.144E+00 -.752E+03   0.105E+00 0.143E+00 0.752E+03   0.104E-02 0.365E-02 0.423E+00   -.206E-04 -.107E-04 0.272E-03
   -.353E+02 0.203E+02 -.229E+04   0.348E+02 -.200E+02 0.229E+04   0.429E+00 -.247E+00 0.302E+00   -.185E-03 0.237E-03 -.309E-04
   -.423E-02 0.125E+01 0.231E+04   0.393E-02 -.122E+01 -.231E+04   -.519E-04 -.182E-02 -.313E+00   0.972E-04 0.232E-03 0.138E-03
   0.236E+02 0.563E+01 0.767E+03   -.240E+02 -.561E+01 -.767E+03   0.324E+00 -.401E-01 -.466E+00   0.134E-03 -.509E-05 0.503E-03
   -.552E-01 -.943E+00 -.742E+03   0.845E-01 0.111E+01 0.741E+03   -.546E-01 -.166E+00 0.420E+00   0.139E-03 -.149E-03 0.193E-03
   -.207E-01 -.169E+01 -.228E+04   0.214E-01 0.168E+01 0.228E+04   -.171E-03 0.309E-02 0.736E-01   -.277E-04 0.222E-03 -.581E-04
   0.107E+01 -.583E+00 0.231E+04   -.104E+01 0.567E+00 -.231E+04   -.162E-02 0.229E-03 -.312E+00   0.205E-03 0.600E-04 0.155E-03
   0.460E+01 -.276E+01 0.793E+03   -.478E+01 0.286E+01 -.793E+03   0.202E+00 -.114E+00 -.412E+00   -.290E-04 0.597E-04 0.505E-03
   -.846E+00 0.388E+00 -.741E+03   0.101E+01 -.446E+00 0.741E+03   -.173E+00 0.358E-01 0.421E+00   -.959E-04 0.290E-03 0.310E-03
   -.145E+01 0.720E+00 -.228E+04   0.144E+01 -.719E+00 0.228E+04   0.410E-02 0.178E-02 0.733E-01   -.164E-04 -.136E-03 -.589E-04
   -.145E+02 0.774E+01 0.231E+04   0.145E+02 -.767E+01 -.231E+04   0.488E-01 -.905E-01 -.265E+00   0.158E-03 0.283E-04 0.944E-04
   -.167E+02 0.177E+02 0.767E+03   0.169E+02 -.180E+02 -.767E+03   -.127E+00 0.298E+00 -.469E+00   -.185E-03 -.187E-04 0.442E-03
   -.514E+00 -.264E+00 -.706E+03   0.642E+00 0.337E+00 0.706E+03   -.109E+00 -.630E-01 0.424E+00   -.202E-03 -.191E-03 0.308E-03
   0.319E+02 -.138E+02 -.225E+04   -.314E+02 0.136E+02 0.225E+04   -.431E+00 0.116E+00 -.237E-01   0.124E-03 0.160E-03 -.116E-03
   0.227E-01 -.137E-01 0.232E+04   -.230E-01 0.140E-01 -.232E+04   0.544E-04 -.229E-03 -.410E+00   0.119E-03 0.249E-04 0.183E-03
   -.528E+01 -.302E+01 0.807E+03   0.527E+01 0.301E+01 -.807E+03   0.123E-01 0.568E-02 -.255E+00   -.214E-03 -.621E-04 0.492E-03
   -.333E+01 0.205E+01 -.771E+03   0.375E+01 -.230E+01 0.771E+03   -.396E+00 0.226E+00 0.867E-01   -.217E-03 0.102E-03 0.468E-03
   -.475E-01 0.173E+00 -.223E+04   0.470E-01 -.172E+00 0.223E+04   0.106E-02 -.500E-02 0.278E+00   0.564E-04 -.183E-03 -.299E-03
   -.140E+02 0.865E+01 0.231E+04   0.139E+02 -.873E+01 -.231E+04   0.103E+00 0.262E-02 -.264E+00   -.107E-03 -.165E-03 0.482E-04
   0.671E-01 -.130E+02 0.808E+03   -.673E-01 0.132E+02 -.808E+03   -.425E-03 -.197E+00 -.194E+00   -.566E-04 -.227E-04 0.558E-03
   0.287E-01 0.136E+01 -.914E+03   -.284E-01 -.140E+01 0.914E+03   -.104E-02 0.802E-01 0.139E+00   0.144E-05 0.398E-04 0.593E-03
   0.279E+02 -.207E+02 -.225E+04   -.275E+02 0.203E+02 0.225E+04   -.316E+00 0.316E+00 -.233E-01   0.512E-04 -.272E-03 -.830E-04
   -.221E+02 0.128E+02 0.228E+04   0.223E+02 -.128E+02 -.228E+04   0.154E-01 -.883E-02 0.109E+00   -.117E-03 -.137E-03 -.677E-04
   -.112E+02 0.651E+01 0.808E+03   0.114E+02 -.662E+01 -.808E+03   -.169E+00 0.971E-01 -.195E+00   -.137E-03 -.211E-04 0.569E-03
   -.744E+00 0.568E+00 -.742E+03   0.874E+00 -.679E+00 0.741E+03   -.118E+00 0.132E+00 0.420E+00   -.108E-03 -.122E-03 0.418E-03
   0.499E+02 -.287E+02 -.239E+04   -.502E+02 0.290E+02 0.239E+04   0.390E+00 -.224E+00 -.937E-01   0.136E-03 0.417E-04 -.437E-04
   0.221E+02 0.127E+02 0.228E+04   -.223E+02 -.128E+02 -.228E+04   -.153E-01 -.874E-02 0.109E+00   -.123E-03 -.149E-03 -.903E-04
   0.113E+02 0.648E+01 0.808E+03   -.115E+02 -.659E+01 -.808E+03   0.169E+00 0.968E-01 -.195E+00   0.217E-03 0.916E-04 0.698E-03
   0.642E+00 0.469E+00 -.742E+03   -.771E+00 -.579E+00 0.742E+03   0.120E+00 0.135E+00 0.419E+00   0.158E-03 -.119E-03 0.356E-03
   -.498E+02 -.287E+02 -.239E+04   0.502E+02 0.289E+02 0.239E+04   -.390E+00 -.224E+00 -.932E-01   -.198E-03 -.143E-04 -.699E-04
   -.282E-01 0.180E+02 0.230E+04   0.284E-01 -.182E+02 -.230E+04   0.261E-04 0.614E-01 -.139E-01   -.127E-03 -.207E-03 -.767E-05
   0.531E+01 -.304E+01 0.807E+03   -.530E+01 0.304E+01 -.807E+03   -.120E-01 0.634E-02 -.255E+00   0.241E-03 0.197E-04 0.583E-03
   0.333E+01 0.197E+01 -.771E+03   -.375E+01 -.221E+01 0.771E+03   0.396E+00 0.227E+00 0.868E-01   0.237E-03 0.120E-03 0.473E-03
   0.516E-01 -.406E+02 -.229E+04   -.508E-01 0.401E+02 0.229E+04   -.138E-02 0.492E+00 0.304E+00   -.695E-04 -.375E-03 -.229E-04
   0.140E+02 0.865E+01 0.231E+04   -.139E+02 -.872E+01 -.231E+04   -.103E+00 0.250E-02 -.264E+00   0.115E-03 -.189E-04 0.911E-04
   -.100E+00 0.540E+01 0.793E+03   0.100E+00 -.560E+01 -.793E+03   0.158E-02 0.231E+00 -.413E+00   0.301E-04 0.603E-06 0.562E-03
   -.239E-01 0.706E+00 -.706E+03   0.237E-01 -.853E+00 0.706E+03   0.122E-02 0.124E+00 0.424E+00   -.217E-04 0.152E-03 0.347E-03
   -.279E+02 -.207E+02 -.225E+04   0.275E+02 0.204E+02 0.225E+04   0.314E+00 0.316E+00 -.235E-01   -.443E-04 -.280E-03 -.169E-03
   0.145E+02 0.772E+01 0.231E+04   -.145E+02 -.765E+01 -.231E+04   -.489E-01 -.904E-01 -.265E+00   0.829E-04 0.166E-04 0.839E-04
   0.167E+02 0.176E+02 0.767E+03   -.168E+02 -.179E+02 -.766E+03   0.127E+00 0.299E+00 -.469E+00   0.109E-03 0.875E-04 0.557E-03
   0.617E+00 -.326E+00 -.706E+03   -.744E+00 0.399E+00 0.706E+03   0.107E+00 -.622E-01 0.424E+00   0.150E-03 -.187E-03 0.240E-03
   -.319E+02 -.137E+02 -.225E+04   0.315E+02 0.136E+02 0.225E+04   0.431E+00 0.115E+00 -.235E-01   -.710E-04 0.103E-03 -.168E-03
   0.212E-02 0.120E-01 -.291E+03   -.213E-02 -.139E-01 0.293E+03   0.497E-04 0.133E-02 -.168E+01   -.510E-05 0.166E-04 -.599E-04
   -.280E-04 -.588E-02 0.535E+01   -.577E-13 0.906E-12 0.341E-12   0.153E-04 0.877E-02 -.533E+01   0.587E-05 0.933E-04 0.132E-01

 POSITION                                       TOTAL-FORCE (eV/Angst)
     10.55998      0.00001      1.11585         0.030622      0.088282     -0.135987
      2.62792      1.54474      3.58790         0.009285      0.001234      0.008323
      0.01226      3.05495      6.20849         0.009079      0.004073     -0.000001
      0.00157      0.00694      8.30563        -0.000038      0.017079      0.005235
      9.23998      2.28632      1.11585         0.181629      0.104505      0.119661
      1.32005      3.81056      3.85960        -0.000900     -0.001882     -0.025581
      1.32024      0.79838      5.96866        -0.000783      0.006979      0.007913
      9.23877      2.28469      8.43263         0.017946      0.010114      0.021348
      1.31998      2.28632      1.11585         0.000035      0.191844      0.205269
     -1.29598      3.81067      3.58727        -0.006175     -0.009768      0.010783
      3.95747      0.77324      5.91591         0.004531      0.003529      0.001637
      1.32026      2.24876      8.77562         0.000146      0.004599      0.009827
      2.63998      0.00001      1.11585        -0.030949      0.088493     -0.136191
      0.01214      1.54480      3.58779        -0.010492      0.000242      0.009614
      2.62813      3.05494      6.20848        -0.009760      0.003682     -0.000219
      2.63891      0.00693      8.30540        -0.000121      0.017538      0.006033
      5.27998      0.00001      1.11585        -0.032672     -0.018605     -0.045957
      7.92778      1.52854      3.53293        -0.009537     -0.003689      0.018818
      5.26860      3.04436      5.91560         0.002283     -0.004917      0.001367
      0.00008      9.14453      8.34273        -0.004958     -0.001068      0.004193
      3.95998      2.28632      1.11585        -0.181888      0.104497      0.119770
      6.59997      3.80762      3.50288        -0.000005      0.006531     -0.004828
      6.60016      0.76128      5.92784         0.002047      0.002536      0.002187
      3.96175      2.28470      8.43242        -0.018651      0.010946      0.022920
      6.59998      2.28632      1.11585        -0.000258      0.037564     -0.046661
      3.93595      3.81060      3.58734         0.006893     -0.008624      0.010307
      9.24296      0.77325      5.91611        -0.005485      0.003361      0.000940
      6.60023      2.28594      8.34280         0.000558      0.004499      0.003576
      7.91998      0.00001      1.11585         0.032470     -0.018995     -0.045408
      5.27216      1.52852      3.53299         0.010781     -0.002919      0.017363
      7.93168      3.04447      5.91564        -0.001142     -0.006803      0.001187
      2.64029      9.14450      8.34311         0.005355     -0.000083      0.003170
      7.91998      4.57263      1.11585         0.091306     -0.017215     -0.136660
      0.01187      6.07605      3.58761         0.004917      0.008847      0.009023
     -2.63201      7.62503      5.84577         0.011603      0.005389     -0.004660
     -2.63249      4.56927      8.30526         0.015738     -0.006993      0.003836
      6.59998      6.85894      1.11585        -0.000154      0.000074     -0.227645
     -1.31747      8.38457      3.50301        -0.007372     -0.005519     -0.005373
     -1.28789      5.31590      5.96824         0.003990     -0.004960      0.009168
     -3.95978      6.85855      8.20855         0.000582     -0.004139     -0.006477
     -1.32002      6.85894      1.11585         0.061016     -0.070173     -0.136553
     -3.95997      8.39568      3.49507        -0.000634      0.021194      0.004196
      1.32021      5.32026      6.20892        -0.000652     -0.011483      0.001202
     -1.31378      6.85328      8.30568         0.013145     -0.009812      0.004609
     -0.00002      4.57263      1.11585         0.166781     -0.096032      0.204054
     -2.62913      6.09055      3.49503         0.018766     -0.010739      0.004113
      0.00891      7.61210      5.91620         0.004110      0.003180      0.001721
     -0.03173      4.59025      8.77564         0.003126     -0.000662      0.008867
      2.63998      4.57263      1.11585        -0.166746     -0.095944      0.204093
      5.26915      6.09056      3.49512        -0.019707     -0.010615      0.003869
      2.63133      7.61198      5.91652        -0.001768      0.006153      0.000700
      2.67229      4.59029      8.77579        -0.003113     -0.001416      0.009145
      1.31998      6.85894      1.11585         0.000084     -0.208920      0.120701
      3.95746      8.38455      3.50310         0.007039     -0.005042     -0.004003
      3.92823      5.31586      5.96836        -0.003675     -0.003832      0.009161
      1.32031      6.86010      8.43330        -0.000642     -0.023505      0.022086
      3.95998      6.85894      1.11585        -0.061232     -0.070187     -0.135844
      1.31992      8.37407      3.53342         0.001643      0.009944      0.017028
      6.60010      5.32539      5.84581         0.000877     -0.014262     -0.004206
      3.95437      6.85330      8.30609        -0.014652     -0.010055      0.004492
      5.27998      4.57263      1.11585        -0.091705     -0.017076     -0.136353
      2.62810      6.07600      3.58776        -0.003981      0.010017      0.009448
      5.27244      7.62501      5.84595        -0.013219      0.006507     -0.005229
      5.27298      4.56926      8.30518        -0.015359     -0.006923      0.004361
      1.32023      3.81034      9.78718         0.000039     -0.000575     -0.023478
    total drift:                               -0.000007      0.002986      0.030583

  FREE ENERGIE OF THE ION-ELECTRON SYSTEM (eV)
  free  energy   TOTEN  =      -408.94739249 eV

  energy  without entropy=     -408.89188861  energy(sigma->0) =     -408.92889120

 reached required accuracy - stopping structural energy minimisation