 vasp.5.4.4.18Apr17-6-g9f103f2a35 (build Nov 30 2020 22:55:02) complex

 executed on             LinuxIFC date 2023.08.04  22:11:16

 INCAR:
 POTCAR:    PAW_PBE Pt 04Feb2005
 POTCAR:    PAW_PBE Cu 22Jun2005
 POTCAR:    PAW_PBE Ni 02Aug2007
 POTCAR:    PAW_PBE Fe 06Sep2000
 POTCAR:    PAW_PBE Co 02Aug2007
 POTCAR:    PAW_PBE H 15Jun2001
 POTCAR:    PAW_PBE Pt 04Feb2005
   VRHFIN =Pt: s1d9

   TITEL  = PAW_PBE Pt 04Feb2005
   POMASS =  195.080; ZVAL   =   10.000    mass and valenz
   ENMAX  =  230.283; ENMIN  =  172.712 eV

 POTCAR:    PAW_PBE Cu 22Jun2005
   VRHFIN =Cu: d10 p1

   TITEL  = PAW_PBE Cu 22Jun2005
   POMASS =   63.546; ZVAL   =   11.000    mass and valenz
   ENMAX  =  295.446; ENMIN  =  221.585 eV

 POTCAR:    PAW_PBE Ni 02Aug2007
   VRHFIN =Ni:

   TITEL  = PAW_PBE Ni 02Aug2007
   POMASS =   58.690; ZVAL   =   10.000    mass and valenz
   ENMAX  =  269.532; ENMIN  =  202.149 eV

 POTCAR:    PAW_PBE Fe 06Sep2000
   VRHFIN =Fe:  d7 s1

   TITEL  = PAW_PBE Fe 06Sep2000
   POMASS =   55.847; ZVAL   =    8.000    mass and valenz
   ENMAX  =  267.882; ENMIN  =  200.911 eV

 POTCAR:    PAW_PBE Co 02Aug2007
   VRHFIN =Co: d8 s1

   TITEL  = PAW_PBE Co 02Aug2007
   POMASS =   58.933; ZVAL   =    9.000    mass and valenz
   ENMAX  =  267.968; ENMIN  =  200.976 eV

 POTCAR:    PAW_PBE H 15Jun2001
   VRHFIN =H: ultrasoft test

   TITEL  = PAW_PBE H 15Jun2001
   POMASS =    1.000; ZVAL   =    1.000    mass and valenz
   ENMAX  =  250.000; ENMIN  =  200.000 eV

 Optimization of the real space projectors (new method)

 maximal supplied QI-value         = 14.36
 optimisation between [QCUT,QGAM] = [ 11.92, 23.98] = [ 39.79,161.09] Ry
 Optimized for a Real-space Cutoff    1.49 Angstroem

   l    n(q)    QCUT    max X(q) W(low)/X(q) W(high)/X(q)  e(spline)
   2     10    11.920    66.195    0.79E-04    0.18E-03    0.24E-06
   2     10    11.920    64.643    0.81E-04    0.19E-03    0.24E-06
   0     11    11.920    95.520    0.28E-04    0.54E-04    0.18E-06
   0     11    11.920    63.403    0.27E-04    0.52E-04    0.17E-06
   1     10    11.920    19.961    0.18E-04    0.11E-03    0.23E-06
   1     10    11.920    13.289    0.25E-04    0.87E-04    0.19E-06
 Optimization of the real space projectors (new method)

[...]

   l    n(q)    QCUT    max X(q) W(low)/X(q) W(high)/X(q)  e(spline)
   2      9    11.864    65.824    0.22E-03    0.53E-03    0.26E-06
   2      9    11.864    61.429    0.22E-03    0.53E-03    0.26E-06
   0      9    11.864    56.174    0.21E-03    0.32E-04    0.15E-06
   0      9    11.864    31.263    0.19E-03    0.30E-04    0.14E-06
   1      9    11.864    19.828    0.63E-04    0.30E-03    0.16E-06
   1      9    11.864    15.139    0.49E-04    0.25E-03    0.13E-06
 Optimization of the real space projectors (new method)

 maximal supplied QI-value         = 34.20
 optimisation between [QCUT,QGAM] = [ 11.97, 23.94] = [ 40.13,160.53] Ry
 Optimized for a Real-space Cutoff    1.18 Angstroem

   l    n(q)    QCUT    max X(q) W(low)/X(q) W(high)/X(q)  e(spline)
   0      8    11.971    19.460    0.15E-03    0.31E-03    0.25E-06
   0      8    11.971    12.209    0.13E-03    0.29E-03    0.25E-06
   1      8    11.971     4.655    0.22E-03    0.24E-03    0.21E-06
  PAW_PBE Pt 04Feb2005                  :
  PAW_PBE Cu 22Jun2005                  :
  PAW_PBE Ni 02Aug2007                  :
  PAW_PBE Fe 06Sep2000                  :
  PAW_PBE Co 02Aug2007                  :
  PAW_PBE H 15Jun2001                   :

 POSCAR: 10.56
  positions in direct lattice
  velocities in cartesian coordinates
 exchange correlation table for  LEXCH =        8
   RHO(1)=    0.500       N(1)  =     2000
   RHO(2)=  100.500       N(2)  =     4000

 ion  position               nearest neighbor table
   1  0.790  0.874  0.317-  49 2.56  59 2.59  19 2.63  33 2.64  61 2.65  29 2.67  60 2.68  28 2.70
                             2 2.72   4 2.82  11 2.86  12 2.98
   2  0.044  0.881  0.316-  79 2.55  77 2.57  60 2.61  30 2.64  28 2.65  22 2.66  52 2.68   1 2.72
                            33 2.73   6 2.75   4 2.81  16 2.89
   3  0.288  0.378  0.320-  64 2.57  39 2.60  33 2.61  68 2.63  31 2.65  19 2.68  43 2.70  30 2.71
                             5 2.76  18 2.78  25 2.82  13 2.82
   4  0.879  0.958  0.423-   9 2.63  16 2.63   6 2.64  12 2.65  17 2.65  11 2.67  60 2.69   2 2.81
                             1 2.82
   5  0.129  0.457  0.426-  13 2.61  12 2.63  25 2.63  10 2.64   7 2.65  16 2.65  33 2.76   3 2.76
                            39 2.77
   6  0.129  0.958  0.421-   8 2.61  14 2.62  10 2.63   4 2.64  16 2.64   9 2.65   2 2.75  52 2.81
                            22 2.88
   7  0.881  0.451  0.424-  82 1.74   9 2.59  10 2.60  15 2.64   5 2.65  12 2.71  39 2.72  27 2.73
                            29 2.77  75 2.79
   8  0.376  0.957  0.418-   6 2.61  27 2.62  10 2.62  43 2.62  14 2.63  11 2.65  13 2.66  52 2.66
                            61 2.66
   9  0.877  0.208  0.422-   7 2.59  17 2.63   4 2.63  15 2.64  60 2.65   6 2.65  10 2.66  75 2.72
                            22 2.82
  10  0.129  0.207  0.422-   7 2.60  13 2.61   8 2.62   6 2.63   5 2.64   9 2.66  43 2.72  39 2.74
                            22 2.82
  11  0.623  0.964  0.427-  81 1.67  13 2.60  17 2.61   8 2.65   4 2.67  27 2.70  12 2.72  19 2.84
                             1 2.86  61 2.88
  12  0.881  0.707  0.433-  82 1.86  81 2.02  16 2.61   5 2.63   4 2.65   7 2.71  11 2.72  27 2.74
                            33 2.84  29 2.96   1 2.98
  13  0.375  0.209  0.427-  11 2.60  10 2.61   5 2.61   8 2.66  25 2.66  17 2.67   3 2.82  43 2.85
                            19 2.88
  14  0.377  0.709  0.427-  27 2.58   6 2.62   8 2.63  25 2.63  16 2.63  15 2.65  44 2.75  30 2.79
                            52 2.88
  15  0.627  0.458  0.423-  27 2.62  17 2.63  25 2.64   9 2.64   7 2.64  14 2.65  44 2.73  18 2.75
                            75 2.79
  16  0.128  0.708  0.426-  12 2.61  25 2.63  14 2.63   4 2.63   6 2.64   5 2.65  33 2.77  30 2.80
                             2 2.89
  17  0.628  0.208  0.424-  11 2.61   9 2.63  15 2.63   4 2.65  25 2.65  13 2.67  60 2.71  18 2.78
                            19 2.88
  18  0.555  0.370  0.317-  67 2.53  75 2.55  60 2.57  68 2.60  26 2.68  44 2.69  19 2.72  15 2.75
                            30 2.76   3 2.78  17 2.78  25 2.90
  19  0.539  0.121  0.316-  59 2.54  80 2.56  68 2.56  43 2.60  61 2.62   1 2.63   3 2.68  18 2.72
                            60 2.73  11 2.84  13 2.88  17 2.88
  20  0.547  0.122  0.038-  57 2.54  37 2.59  48 2.60  62 2.60  47 2.60  34 2.65  45 2.68  63 2.71
                            56 2.75
  21  0.124  0.462  0.127-  36 2.55  47 2.57  40 2.58  58 2.61  42 2.61  64 2.63  31 2.66  69 2.66
                            50 2.67  74 2.69  70 2.69  57 2.69
  22  0.041  0.134  0.313-  65 2.47  55 2.54  75 2.54  77 2.57  39 2.59  43 2.60  60 2.65   2 2.66
                            52 2.74  10 2.82   9 2.82   6 2.88
  23  0.032  0.135  0.034-  70 2.57  62 2.59  40 2.59  41 2.60  76 2.63  45 2.70  24 2.70  35 2.71
                            53 2.86
  24  0.127  0.955  0.132-  79 2.52  55 2.55  53 2.61  35 2.62  77 2.62  58 2.62  73 2.64  70 2.65
                            38 2.67  66 2.68  23 2.70  41 2.74
  25  0.377  0.459  0.426-  16 2.63  14 2.63   5 2.63  15 2.64  17 2.65  13 2.66   3 2.82  30 2.83
                            18 2.90
  26  0.458  0.546  0.220-  73 2.50  74 2.51  51 2.53  79 2.60  64 2.61  30 2.65  68 2.66  18 2.68
                            32 2.69  78 2.71  44 2.72  67 2.74
  27  0.621  0.709  0.429-  82 1.99  81 2.02  14 2.58   8 2.62  15 2.62  11 2.70   7 2.73  12 2.74
                            44 2.76  29 2.84  61 2.87
  28  0.964  0.793  0.218-  66 2.54  50 2.56  58 2.58  77 2.63  42 2.64   2 2.65  64 2.65  79 2.68
                             1 2.70  59 2.70  49 2.75  33 2.77
  29  0.789  0.622  0.320-  44 2.58  39 2.61  42 2.62  32 2.63  75 2.63  61 2.64  33 2.66   1 2.67
                            49 2.68   7 2.77  27 2.84  12 2.96
  30  0.294  0.631  0.319-  79 2.56  64 2.61  44 2.61  52 2.62   2 2.64  26 2.65   3 2.71  33 2.71
                            18 2.76  14 2.79  16 2.80  25 2.83
  31  0.211  0.284  0.223-  57 2.55  70 2.55  65 2.59  43 2.60  55 2.61  80 2.64   3 2.65  21 2.66
                            39 2.66  68 2.67  42 2.71  64 2.72
  32  0.717  0.537  0.221-  69 2.51  54 2.56  51 2.57  65 2.60  42 2.61  29 2.63  75 2.63  67 2.64
                            49 2.68  26 2.69  44 2.75  78 2.78
  33  0.040  0.625  0.322-  39 2.59  42 2.59   3 2.61   1 2.64  29 2.66  64 2.67  30 2.71   2 2.73
                             5 2.76  28 2.77  16 2.77  12 2.84
  34  0.797  0.870  0.037-  50 2.48  66 2.50  36 2.54  48 2.61  35 2.62  63 2.64  71 2.65  20 2.65
                            62 2.72
  35  0.044  0.872  0.035-  58 2.56  36 2.57  66 2.61  24 2.62  34 2.62  72 2.70  23 2.71  62 2.72
                            53 2.74
  36  0.039  0.631  0.035-  58 2.54  34 2.54  21 2.55  35 2.57  50 2.59  40 2.68  71 2.72  72 2.76
                            47 2.78
  37  0.626  0.214  0.133-  68 2.52  59 2.52  67 2.52  41 2.56  51 2.57  56 2.58  66 2.59  20 2.59
                            74 2.60  62 2.60  57 2.64  48 2.76
  38  0.376  0.961  0.131-  80 2.47  53 2.51  55 2.53  78 2.53  63 2.53  45 2.55  54 2.58  48 2.61
                            57 2.62  24 2.67  70 2.69  73 2.69
  39  0.041  0.379  0.320-  33 2.59  22 2.59  42 2.60   3 2.60  29 2.61  75 2.63  31 2.66  65 2.66
                            43 2.71   7 2.72  10 2.74   5 2.77
  40  0.040  0.377  0.033-  69 2.55  21 2.58  23 2.59  76 2.61  70 2.61  45 2.66  71 2.67  36 2.68
                            47 2.81
  41  0.868  0.215  0.131-  67 2.47  65 2.53  76 2.53  77 2.53  37 2.56  51 2.56  62 2.57  69 2.59
                            23 2.60  70 2.61  66 2.63  24 2.74
  42  0.960  0.545  0.225-  33 2.59  39 2.60  50 2.61  32 2.61  21 2.61  29 2.62  28 2.64  64 2.65
                            69 2.68  65 2.69  49 2.70  31 2.71
  43  0.293  0.119  0.319-  52 2.54  55 2.56  22 2.60  31 2.60  19 2.60  61 2.61   8 2.62  80 2.64
                             3 2.70  39 2.71  10 2.72  13 2.85
  44  0.541  0.631  0.322-  61 2.55  52 2.56  29 2.58  30 2.61  78 2.65  18 2.69  26 2.72  75 2.73
                            15 2.73  14 2.75  32 2.75  27 2.76
  45  0.292  0.126  0.037-  38 2.55  57 2.57  70 2.59  40 2.66  53 2.66  20 2.68  23 2.70  47 2.70
                            63 2.74
  46  0.545  0.626  0.042-  73 2.43  51 2.44  54 2.47  71 2.53  53 2.54  76 2.54  63 2.55  72 2.56
                            56 2.56
  47  0.307  0.374  0.039-  74 2.45  57 2.52  56 2.54  21 2.57  20 2.60  72 2.62  45 2.70  36 2.78
                            40 2.81
  48  0.628  0.952  0.133-  49 2.43  80 2.48  59 2.50  63 2.52  50 2.54  54 2.54  20 2.60  34 2.61
                            66 2.61  38 2.61  57 2.66  37 2.76
  49  0.701  0.798  0.223-  48 2.43  54 2.51  80 2.51  61 2.56  78 2.56   1 2.56  50 2.57  59 2.60
                            32 2.68  29 2.68  42 2.70  28 2.75
  50  0.866  0.710  0.128-  71 2.42  34 2.48  48 2.54  28 2.56  49 2.57  54 2.58  36 2.59  42 2.61
[...]

 FORCES acting on ions
    electron-ion (+dipol)            ewald-force                    non-local-force                 convergence-correction
   -.310E+02 -.619E+02 -.145E+04   0.301E+02 0.625E+02 0.145E+04   0.923E+00 -.608E+00 0.256E+01   0.420E-02 0.327E-02 0.188E-01
   0.578E+02 -.149E+02 -.141E+04   -.575E+02 0.156E+02 0.141E+04   -.266E+00 -.706E+00 0.270E+01   -.451E-02 0.940E-02 0.234E-01
   -.111E+03 0.227E+01 -.143E+04   0.111E+03 -.217E+01 0.143E+04   0.276E+00 -.967E-01 0.295E+01   -.128E-01 -.216E-02 0.217E-01
   0.452E+01 -.208E+02 -.284E+04   -.427E+01 0.211E+02 0.284E+04   -.262E+00 -.270E+00 0.114E+01   0.648E-02 -.720E-02 0.852E-02
   -.273E+02 0.202E+01 -.293E+04   0.276E+02 -.213E+01 0.293E+04   -.326E+00 0.142E+00 0.101E+01   -.819E-02 0.516E-02 0.113E-01
   0.349E+02 -.102E+02 -.288E+04   -.348E+02 0.101E+02 0.288E+04   -.407E-01 0.129E+00 0.850E+00   -.267E-02 0.261E-02 0.102E-01
   0.294E+02 0.195E+02 -.289E+04   -.295E+02 -.202E+02 0.289E+04   0.516E-01 0.685E+00 0.254E-01   0.731E-02 -.102E-02 0.106E-01
   -.164E+02 0.154E+01 -.287E+04   0.161E+02 -.170E+01 0.287E+04   0.244E+00 0.207E+00 0.175E+01   -.528E-02 0.144E-02 0.954E-02
   0.243E+02 0.283E+02 -.287E+04   -.247E+02 -.281E+02 0.286E+04   0.261E+00 -.248E+00 0.163E+01   0.911E-02 -.977E-02 0.714E-02
   0.255E+02 0.218E+02 -.292E+04   -.254E+02 -.218E+02 0.292E+04   -.935E-01 0.300E-01 0.739E+00   -.466E-02 -.422E-02 0.854E-02
   -.262E+02 -.292E+02 -.284E+04   0.259E+02 0.292E+02 0.284E+04   0.233E+00 0.372E-01 -.121E+01   0.133E-02 -.902E-02 0.860E-02
   -.144E+02 -.429E+02 -.291E+04   0.162E+02 0.424E+02 0.291E+04   -.180E+01 0.481E+00 0.550E+00   0.476E-02 0.157E-02 0.955E-02
   -.453E+02 0.259E+00 -.292E+04   0.452E+02 -.161E+00 0.292E+04   0.918E-01 -.108E+00 0.714E+00   -.108E-01 -.500E-02 0.100E-01
   0.301E+02 0.237E+01 -.294E+04   -.300E+02 -.242E+01 0.294E+04   -.768E-01 0.404E-01 0.936E+00   -.341E-02 0.122E-01 0.121E-01
   0.165E+02 0.393E+02 -.288E+04   -.167E+02 -.394E+02 0.288E+04   0.175E+00 0.132E+00 0.104E+01   0.839E-02 0.172E-02 0.113E-01
   -.127E+02 -.249E+02 -.289E+04   0.127E+02 0.247E+02 0.289E+04   -.420E-01 0.119E+00 0.785E+00   -.702E-02 0.944E-02 0.122E-01
   0.473E+00 0.769E+01 -.285E+04   -.168E+00 -.776E+01 0.285E+04   -.340E+00 0.677E-01 0.122E+01   0.622E-02 -.108E-01 0.904E-02
   0.470E+02 0.458E+02 -.140E+04   -.453E+02 -.468E+02 0.140E+04   -.177E+01 0.110E+01 0.275E+01   0.106E-01 -.639E-02 0.151E-01
   -.900E+02 -.313E+02 -.141E+04   0.897E+02 0.300E+02 0.141E+04   0.228E+00 0.128E+01 0.327E+01   0.376E-03 -.130E-01 0.152E-01
   -.228E+02 -.236E+02 0.300E+04   0.228E+02 0.239E+02 -.300E+04   -.270E-01 -.291E+00 -.198E+01   0.485E-02 -.245E-02 -.595E-02
   -.723E+02 0.214E+02 0.148E+04   0.728E+02 -.210E+02 -.148E+04   -.592E+00 -.319E+00 -.888E-01   0.770E-02 -.422E-02 -.155E-01
   0.996E+02 0.250E+02 -.139E+04   -.100E+03 -.238E+02 0.139E+04   0.600E+00 -.111E+01 0.330E+01   0.227E-02 -.360E-02 0.145E-01
   0.349E+02 0.500E+02 0.303E+04   -.355E+02 -.488E+02 -.303E+04   0.674E+00 -.118E+01 -.221E+01   -.169E-02 -.748E-02 0.138E-02
   0.908E+02 0.348E+01 0.147E+04   -.909E+02 -.473E+01 -.147E+04   0.640E-01 0.125E+01 -.114E+01   -.419E-02 0.718E-02 -.131E-01
   -.168E+02 0.242E+02 -.288E+04   0.167E+02 -.242E+02 0.288E+04   0.175E+00 -.112E+00 0.613E+00   -.768E-02 0.760E-02 0.130E-01
   0.504E+02 0.601E+02 0.259E+02   -.515E+02 -.601E+02 -.276E+02   0.110E+01 -.413E-01 0.170E+01   0.485E-02 0.291E-02 0.111E-01
   -.769E+01 -.140E+02 -.291E+04   0.549E+01 0.141E+02 0.291E+04   0.223E+01 -.132E+00 0.129E+01   0.525E-02 0.539E-02 0.977E-02
   -.612E+02 -.364E+02 0.115E+03   0.616E+02 0.364E+02 -.117E+03   -.432E+00 -.716E-01 0.179E+01   0.442E-02 0.862E-02 -.338E-02
   0.109E+02 -.482E+02 -.152E+04   -.113E+02 0.483E+02 0.152E+04   0.500E+00 -.964E-01 0.251E+01   0.392E-02 0.144E-02 0.228E-01
   0.392E+02 0.554E+02 -.144E+04   -.392E+02 -.545E+02 0.144E+04   0.328E-01 -.801E+00 0.272E+01   -.401E-02 0.757E-02 0.252E-01
   -.794E+02 -.509E+02 0.850E+02   0.796E+02 0.501E+02 -.860E+02   -.181E+00 0.725E+00 0.104E+01   -.152E-01 -.162E-01 -.331E-02
   0.449E+02 0.463E+02 0.120E+02   -.442E+02 -.474E+02 -.129E+02   -.676E+00 0.119E+01 0.105E+01   -.126E-02 -.534E-02 0.246E-01
   -.618E+02 -.786E+02 -.164E+04   0.615E+02 0.783E+02 0.163E+04   0.356E+00 0.414E+00 0.110E+01   -.529E-02 0.503E-02 0.259E-01
   0.103E+02 -.904E+02 0.332E+04   -.107E+02 0.905E+02 -.331E+04   0.332E+00 -.159E-01 -.234E+01   0.166E-01 0.936E-02 -.107E-01
   -.328E+02 -.506E+02 0.329E+04   0.322E+02 0.502E+02 -.328E+04   0.730E+00 0.491E+00 -.291E+01   -.328E-02 -.834E-03 0.281E-02
   -.545E+02 0.438E+02 0.331E+04   0.546E+02 -.435E+02 -.331E+04   -.183E+00 -.316E+00 -.359E+01   0.149E-01 0.829E-02 -.522E-02
   0.519E+02 0.291E+02 0.158E+04   -.519E+02 -.291E+02 -.158E+04   -.778E-01 -.207E-01 -.134E+01   0.101E-01 -.233E-01 -.157E-01
   0.210E+02 -.655E+02 0.168E+04   -.204E+02 0.652E+02 -.168E+04   -.630E+00 0.165E+00 -.928E+00   -.137E-01 0.245E-01 -.622E-02
   0.158E+02 0.117E+02 -.161E+04   -.163E+02 -.119E+02 0.161E+04   0.551E+00 0.120E+00 0.123E+01   -.165E-02 -.608E-02 0.204E-01
   -.319E+02 0.349E+01 0.335E+04   0.303E+02 -.378E+01 -.335E+04   0.155E+01 0.337E+00 -.325E+01   0.118E-01 -.117E-01 -.974E-02
   0.368E+01 0.812E+02 0.163E+04   -.398E+01 -.809E+02 -.163E+04   0.351E+00 -.397E+00 -.113E+01   0.194E-02 -.291E-01 -.115E-01
   -.559E+02 0.110E+02 0.355E+02   0.557E+02 -.107E+02 -.357E+02   0.117E+00 -.291E+00 0.101E+00   0.102E-01 -.327E-02 0.178E-01
   -.728E+02 -.389E+02 -.162E+04   0.727E+02 0.382E+02 0.162E+04   0.192E+00 0.816E+00 0.176E+01   -.104E-01 -.537E-02 0.119E-01
   0.358E+01 0.683E+02 -.164E+04   -.325E+01 -.674E+02 0.163E+04   -.357E+00 -.988E+00 0.929E+00   0.591E-02 0.675E-02 0.210E-01
   -.374E+02 -.244E+01 0.331E+04   0.379E+02 0.194E+01 -.330E+04   -.449E+00 0.482E+00 -.279E+01   -.757E-02 0.264E-02 0.355E-02
   0.203E+02 0.215E+02 0.304E+04   -.203E+02 -.214E+02 -.304E+04   -.987E-01 -.108E+00 -.634E+00   -.717E-02 0.753E-02 -.229E-01
   -.197E+02 0.565E+01 0.297E+04   0.213E+02 -.576E+01 -.297E+04   -.168E+01 0.114E+00 -.211E+01   -.861E-02 0.785E-03 -.115E-01
   -.669E+02 -.114E+03 0.148E+04   0.670E+02 0.114E+03 -.148E+04   -.106E+00 0.505E+00 -.918E+00   0.555E-02 0.155E-01 -.101E-01
   -.687E+02 -.125E+02 -.556E+02   0.680E+02 0.131E+02 0.550E+02   0.754E+00 -.768E+00 0.602E+00   0.451E-02 0.129E-01 0.172E-01
   -.110E+03 -.208E+00 0.148E+04   0.110E+03 0.594E+00 -.148E+04   0.373E-01 -.430E+00 -.460E+00   0.265E-01 0.129E-01 -.152E-01
   0.419E+02 0.322E+02 0.148E+04   -.418E+02 -.317E+02 -.148E+04   -.341E-01 -.365E+00 0.601E-01   -.590E-02 -.135E-01 -.819E-02
   0.713E+02 0.248E+02 -.146E+04   -.710E+02 -.250E+02 0.146E+04   -.448E+00 0.250E+00 0.169E+01   0.255E-02 0.147E-01 0.181E-01
   0.456E+02 -.349E+02 0.303E+04   -.448E+02 0.336E+02 -.303E+04   -.860E+00 0.132E+01 -.198E+01   -.104E-01 0.902E-02 -.786E-02
   0.166E+02 0.362E+02 0.146E+04   -.161E+02 -.361E+02 -.146E+04   -.444E+00 -.158E+00 -.408E+00   -.422E-02 0.174E-01 -.102E-01
   0.800E+02 -.484E+02 0.482E+02   -.798E+02 0.481E+02 -.481E+02   -.203E+00 0.310E+00 -.186E+00   0.125E-02 0.127E-01 -.173E-02
   0.868E+01 0.563E+02 0.244E+04   -.838E+01 -.558E+02 -.244E+04   -.318E+00 -.542E+00 -.281E+01   -.283E-02 -.897E-02 -.152E-01
   -.199E+02 -.500E+02 0.117E+04   0.200E+02 0.504E+02 -.116E+04   -.881E-01 -.325E+00 -.759E+00   -.139E-01 -.722E-02 -.111E-01
   0.223E+02 -.149E+02 0.118E+04   -.219E+02 0.146E+02 -.117E+04   -.402E+00 0.355E+00 -.775E+00   -.568E-02 0.102E-01 -.175E-01
   -.508E+02 -.409E+02 -.208E+02   0.509E+02 0.414E+02 0.205E+02   -.145E+00 -.595E+00 0.307E+00   0.855E-02 -.270E-02 0.296E-02
   0.439E+02 0.144E+02 -.117E+04   -.436E+02 -.142E+02 0.117E+04   -.253E+00 -.157E+00 0.123E+01   0.558E-02 -.511E-02 0.866E-02
[...]
   -.409E+02 0.276E+02 0.135E+04   0.409E+02 -.275E+02 -.135E+04   0.106E-01 -.224E-01 -.134E+00   0.128E-01 -.173E-01 -.106E-01
   -.237E+02 -.794E+01 0.134E+04   0.240E+02 0.852E+01 -.134E+04   -.257E+00 -.581E+00 -.978E+00   0.759E-02 -.160E-01 -.572E-02
   -.680E+01 -.107E+01 0.272E+04   0.563E+01 0.154E+01 -.271E+04   0.111E+01 -.449E+00 -.236E+01   0.956E-02 0.609E-02 -.256E-01
   0.349E+02 0.198E+02 0.270E+04   -.340E+02 -.201E+02 -.269E+04   -.815E+00 0.320E+00 -.277E+01   -.169E-01 0.125E-01 -.858E-02
   0.710E+02 0.300E+01 0.132E+04   -.712E+02 -.320E+01 -.132E+04   0.270E+00 0.228E+00 0.447E-02   -.181E-01 0.151E-01 -.153E-01
   0.640E+02 0.287E+02 0.130E+04   -.642E+02 -.286E+02 -.130E+04   0.217E+00 -.119E+00 -.825E-01   -.142E-01 0.741E-02 -.192E-01
   0.526E+02 0.251E+02 -.128E+04   -.528E+02 -.255E+02 0.128E+04   0.224E+00 0.418E+00 0.120E+01   0.398E-02 -.875E-02 0.137E-01
   0.498E+02 0.555E+02 0.274E+04   -.505E+02 -.549E+02 -.274E+04   0.653E+00 -.566E+00 -.182E+01   -.217E-03 -.172E-01 -.202E-01
   0.491E+02 0.316E+02 0.427E+01   -.497E+02 -.310E+02 -.430E+01   0.615E+00 -.616E+00 -.270E-01   -.525E-03 0.235E-02 0.178E-02
   0.189E+02 0.789E+02 -.131E+02   -.188E+02 -.780E+02 0.134E+02   -.435E-01 -.103E+01 -.428E+00   -.213E-02 0.171E-01 0.116E-01
   0.102E+03 0.474E+02 0.366E+02   -.101E+03 -.472E+02 -.368E+02   -.591E+00 -.219E+00 0.709E-01   -.496E-02 0.143E-01 -.252E-02
   -.800E+02 -.104E+03 0.148E+02   0.805E+02 0.104E+03 -.150E+02   -.433E+00 0.355E+00 0.141E+00   -.107E-01 0.123E-02 0.321E-02
   0.551E+00 0.204E+01 -.346E+03   -.598E+00 -.290E+01 0.347E+03   0.332E-01 0.868E+00 -.186E+01   0.542E-03 -.365E-03 -.332E-03
   0.358E+01 0.422E+00 -.346E+03   -.372E+01 -.908E-01 0.348E+03   0.236E+00 -.349E+00 -.174E+01   0.820E-03 0.393E-03 -.210E-03
   -.687E+00 -.207E+01 0.692E+00   0.665E-12 0.799E-14 0.426E-11   0.696E+00 0.204E+01 -.872E+00   0.112E-02 0.182E-01 0.199E+00

 POSITION                                       TOTAL-FORCE (eV/Angst)
     12.96255      7.99548      6.96904        -0.000948      0.000378      0.001209
      5.11817      8.05496      6.94866        -0.001106      0.000247     -0.000787
      5.03471      3.45283      7.03374        -0.001320     -0.000024     -0.000583
     14.33625      8.76099      9.31320        -0.001948     -0.001445     -0.001053
      3.76916      4.17718      9.37269         0.002294     -0.000447     -0.001972
      6.41780      8.75663      9.27178         0.000744      0.001596     -0.000291
     11.68074      4.12525      9.33815        -0.010136      0.006849      0.007690
      9.02687      8.75569      9.18680        -0.002166      0.000517      0.002951
     10.35577      1.90053      9.27535         0.003127      0.002646     -0.004285
      2.45474      1.88978      9.29236        -0.000212     -0.003410      0.000953
     11.66393      8.81338      9.38740        -0.002302     -0.003772      0.005570
     13.03877      6.46476      9.52495        -0.008231      0.003934      0.013075
      5.06025      1.90904      9.39719        -0.002003      0.000776     -0.000603
      7.71962      6.48133      9.39163         0.002789      0.001164      0.002027
      9.03691      4.18502      9.30999         0.004920      0.005378      0.003259
      5.08624      6.47600      9.37059         0.002022      0.000550     -0.000868
      7.72816      1.90428      9.33639        -0.003337     -0.001520     -0.001527
      7.81328      3.38366      6.98339        -0.000404     -0.000297     -0.000432
      6.32760      1.10770      6.94335        -0.000529     -0.001369      0.001683
      6.42748      1.11951      0.84379        -0.000231      0.036461      0.011131
      3.74457      4.22498      2.80295        -0.006801      0.009710     -0.039608
      1.13789      1.22735      6.88948        -0.000046      0.000427      0.000830
      1.05351      1.23301      0.75714         0.007160      0.009280      0.003933
      6.37970      8.73232      2.89580        -0.009664      0.012880      0.002148
      6.40212      4.20175      9.38257        -0.002135      0.000440      0.000956
      7.71519      4.98986      4.84188         0.011492     -0.029940     -0.013342
     10.30332      6.47985      9.44063         0.002408     -0.000041     -0.011939
     14.36690      7.24966      4.78751        -0.035019     -0.038090     -0.050727
     11.62272      5.69148      7.04837        -0.000308     -0.001300     -0.000382
      6.43445      5.77054      7.02217        -0.000006      0.000581     -0.001036
      3.72880      2.59487      4.89932         0.013029     -0.022818     -0.058782
     10.40714      4.90964      4.85294         0.072336      0.080790      0.141300
      3.72083      5.71162      7.08407         0.000235     -0.000290     -0.000664
     13.01076      7.95414      0.82285        -0.014582      0.028443     -0.014497
      5.07062      7.97664      0.75916        -0.002823      0.008832     -0.002547
      3.74725      5.77233      0.77268         0.007776      0.008050     -0.017847
      7.73906      1.95923      2.91892         0.003752     -0.006228     -0.000822
      9.04575      8.78897      2.87226        -0.004644     -0.011991      0.007980
      2.43223      3.46928      7.04900        -0.000524      0.000373      0.000212
      2.40788      3.44595      0.73676        -0.010266      0.029988      0.001479
     10.29842      1.96823      2.88139         0.023753     -0.015927     -0.006679
     13.01351      4.98805      4.94410        -0.006390      0.021182      0.064737
      3.72624      1.09020      7.01907        -0.000375     -0.000549      0.000121
      9.04285      5.76992      7.08502        -0.000049      0.000431      0.000223
      3.74683      1.15285      0.81959        -0.000097      0.005496      0.007636
      9.06513      5.72471      0.92537        -0.015505      0.023348     -0.006592
      5.21212      3.41637      0.86086        -0.000879      0.009800     -0.008002
     11.65625      8.70496      2.91787        -0.026362     -0.015963      0.020442
     11.62151      7.29974      4.90178         0.035671     -0.043723      0.038716
     12.89980      6.49745      2.82364         0.011642     -0.016101     -0.008915
      9.01343      4.18612      2.81919         0.025227      0.014763      0.000944
      7.80036      8.00219      6.94803        -0.000553      0.000525      0.000654
      7.81053      7.92859      0.86888        -0.012325     -0.004249      0.020691
     10.31657      6.54831      2.89472         0.020184      0.012073     -0.020074
      2.46166      0.31661      4.92733        -0.007324     -0.020579     -0.041044
      7.75154      3.52543      0.86333         0.000360      0.003617      0.017631
      5.10291      1.89984      2.87069        -0.009839      0.037261     -0.015030
      5.17349      6.40557      2.77226        -0.038069      0.040163      0.023179
      7.65418      0.39388      4.89233        -0.019189     -0.076642      0.053228
      9.05702      1.14187      7.09641        -0.001012     -0.000899      0.001797
[...]
      6.39598      2.67997      4.92292         0.011217     -0.046581     -0.075411
     11.64052      4.17844      2.78900        -0.007675      0.011573      0.009833
      2.34972      1.92500      2.86197         0.008288      0.002252     -0.023735
     11.59075      5.72177      0.94802        -0.025082      0.007241     -0.012607
      6.50379      5.69604      0.91052         0.001976      0.009590     -0.002091
      7.71278      6.45493      2.81038        -0.008834      0.013954      0.042086
      6.43155      4.20716      2.83788         0.001892     -0.011412      0.002043
     10.36345      3.38164      6.99436         0.000538      0.000837     -0.000011
     10.36553      3.54396      0.90454        -0.007557      0.012293     -0.022597
     10.23662      0.46679      4.91587        -0.037885     -0.019883      0.025373
      9.06408      7.34028      4.95059         0.037811     -0.069813     -0.005299
      6.48344      7.27349      4.94428         0.019064     -0.028226     -0.058558
      5.04827      0.31035      4.87551         0.044138      0.001769      0.041043
     11.64710      7.56400     10.49687        -0.013208      0.010886      0.010243
     11.73194      5.49101     10.41327         0.092147     -0.018897      0.021282
    total drift:                                0.010113     -0.016983      0.018627

  FREE ENERGIE OF THE ION-ELECTRON SYSTEM (eV)
  free  energy   TOTEN  =      -518.15025248 eV

  energy  without entropy=     -518.15638096  energy(sigma->0) =     -518.15229531

 Quasi-Newton relaxation of ions (Broydens 2nd method)
  g(Force)  = 0.511E-03   g(Stress)= 0.000E+00

 Reset! Starting new Quasi-Newton update for ions

 reached required accuracy - stopping structural energy minimisation