 vasp.5.4.4.18Apr17-6-g9f103f2a35 (build Nov 30 2020 22:55:02) complex

 executed on             LinuxIFC date 2023.08.05  10:12:25

 INCAR:
 POTCAR:    PAW_PBE Pt 04Feb2005
 POTCAR:    PAW_PBE Cu 22Jun2005
 POTCAR:    PAW_PBE Ni 02Aug2007
 POTCAR:    PAW_PBE Fe 06Sep2000
 POTCAR:    PAW_PBE Co 02Aug2007
 POTCAR:    PAW_PBE H 15Jun2001

 POTCAR:    PAW_PBE Pt 04Feb2005
   VRHFIN =Pt: s1d9

   TITEL  = PAW_PBE Pt 04Feb2005
   POMASS =  195.080; ZVAL   =   10.000    mass and valenz
   ENMAX  =  230.283; ENMIN  =  172.712 eV

 POTCAR:    PAW_PBE Cu 22Jun2005
   VRHFIN =Cu: d10 p1

   TITEL  = PAW_PBE Cu 22Jun2005
   POMASS =   63.546; ZVAL   =   11.000    mass and valenz
   ENMAX  =  295.446; ENMIN  =  221.585 eV

 POTCAR:    PAW_PBE Ni 02Aug2007
   VRHFIN =Ni:

   TITEL  = PAW_PBE Ni 02Aug2007
   POMASS =   58.690; ZVAL   =   10.000    mass and valenz
   ENMAX  =  269.532; ENMIN  =  202.149 eV

 POTCAR:    PAW_PBE Fe 06Sep2000
   VRHFIN =Fe:  d7 s1

   TITEL  = PAW_PBE Fe 06Sep2000
   POMASS =   55.847; ZVAL   =    8.000    mass and valenz
   ENMAX  =  267.882; ENMIN  =  200.911 eV

 POTCAR:    PAW_PBE Co 02Aug2007
   VRHFIN =Co: d8 s1

   TITEL  = PAW_PBE Co 02Aug2007
   POMASS =   58.933; ZVAL   =    9.000    mass and valenz
   ENMAX  =  267.968; ENMIN  =  200.976 eV

 POTCAR:    PAW_PBE H 15Jun2001
   VRHFIN =H: ultrasoft test

   TITEL  = PAW_PBE H 15Jun2001
   POMASS =    1.000; ZVAL   =    1.000    mass and valenz
   ENMAX  =  250.000; ENMIN  =  200.000 eV

 Optimization of the real space projectors (new method)

 maximal supplied QI-value         = 14.36
 optimisation between [QCUT,QGAM] = [ 11.92, 23.98] = [ 39.79,161.09] Ry
 Optimized for a Real-space Cutoff    1.49 Angstroem

   l    n(q)    QCUT    max X(q) W(low)/X(q) W(high)/X(q)  e(spline)
   2     10    11.920    66.195    0.79E-04    0.18E-03    0.24E-06
   2     10    11.920    64.643    0.81E-04    0.19E-03    0.24E-06
   0     11    11.920    95.520    0.28E-04    0.54E-04    0.18E-06
   0     11    11.920    63.403    0.27E-04    0.52E-04    0.17E-06
   1     10    11.920    19.961    0.18E-04    0.11E-03    0.23E-06
   1     10    11.920    13.289    0.25E-04    0.87E-04    0.19E-06
 Optimization of the real space projectors (new method)

[...]

   l    n(q)    QCUT    max X(q) W(low)/X(q) W(high)/X(q)  e(spline)
   2      9    11.864    65.824    0.22E-03    0.53E-03    0.26E-06
   2      9    11.864    61.429    0.22E-03    0.53E-03    0.26E-06
   0      9    11.864    56.174    0.21E-03    0.32E-04    0.15E-06
   0      9    11.864    31.263    0.19E-03    0.30E-04    0.14E-06
   1      9    11.864    19.828    0.63E-04    0.30E-03    0.16E-06
   1      9    11.864    15.139    0.49E-04    0.25E-03    0.13E-06
 Optimization of the real space projectors (new method)

 maximal supplied QI-value         = 34.20
 optimisation between [QCUT,QGAM] = [ 11.97, 23.94] = [ 40.13,160.53] Ry
 Optimized for a Real-space Cutoff    1.18 Angstroem

   l    n(q)    QCUT    max X(q) W(low)/X(q) W(high)/X(q)  e(spline)
   0      8    11.971    19.460    0.15E-03    0.31E-03    0.25E-06
   0      8    11.971    12.209    0.13E-03    0.29E-03    0.25E-06
   1      8    11.971     4.655    0.22E-03    0.24E-03    0.21E-06
  PAW_PBE Pt 04Feb2005                  :
  PAW_PBE Cu 22Jun2005                  :
  PAW_PBE Ni 02Aug2007                  :
  PAW_PBE Fe 06Sep2000                  :
  PAW_PBE Co 02Aug2007                  :
  PAW_PBE H 15Jun2001                   :

 POSCAR: 10.56
  positions in cartesian coordinates
 exchange correlation table for  LEXCH =        8
   RHO(1)=    0.500       N(1)  =     2000
   RHO(2)=  100.500       N(2)  =     4000

 ion  position               nearest neighbor table
   1  0.789  0.875  0.317-  49 2.57  59 2.59  19 2.62  61 2.65  33 2.66  60 2.67  29 2.67  28 2.71
                             2 2.72   4 2.82  12 2.86  11 2.88
   2  0.044  0.881  0.316-  79 2.55  77 2.57  60 2.61  30 2.64  22 2.65  28 2.66  52 2.68   1 2.72
                            33 2.74   6 2.76   4 2.82  16 2.87
   3  0.289  0.375  0.321-  64 2.60  39 2.60  33 2.62  68 2.65  31 2.66  19 2.67  43 2.68  30 2.72
                             5 2.74  18 2.78  25 2.82  13 2.91
   4  0.879  0.957  0.424-  12 2.62  16 2.63   9 2.64   6 2.65  17 2.65  11 2.66  60 2.70   2 2.82
                             1 2.82
   5  0.129  0.456  0.426-  13 2.61  10 2.63  25 2.64   7 2.65  12 2.65  16 2.65   3 2.74  39 2.78
                            33 2.78
   6  0.129  0.958  0.422-   8 2.61  10 2.63  14 2.63   4 2.65   9 2.65  16 2.65   2 2.76  52 2.81
                            22 2.88
   7  0.879  0.454  0.425-  82 1.85   9 2.61  10 2.61  15 2.65   5 2.65  12 2.70  27 2.71  39 2.73
                            29 2.77  75 2.80
   8  0.376  0.957  0.417-  27 2.61   6 2.61  43 2.62  14 2.63  10 2.64  52 2.65  61 2.66  11 2.67
                            13 2.68
   9  0.877  0.208  0.422-   7 2.61  17 2.61  15 2.64   4 2.64  10 2.65   6 2.65  60 2.65  75 2.71
                            22 2.82
  10  0.128  0.208  0.422-   7 2.61  13 2.63   6 2.63   5 2.63   8 2.64   9 2.65  43 2.72  39 2.72
                            22 2.81
  11  0.627  0.959  0.429-  81 1.75  17 2.65   4 2.66  13 2.66  12 2.66  27 2.66   8 2.67   1 2.88
                            19 2.90  61 2.94
  12  0.880  0.709  0.427-  82 1.80  16 2.61   4 2.62   5 2.65  11 2.66   7 2.70  27 2.72  33 2.77
                             1 2.86  29 2.87
  13  0.374  0.210  0.434-  81 1.75   5 2.61  10 2.63  11 2.66  25 2.66   8 2.68  17 2.69   3 2.91
                            43 2.97  19 3.00
  14  0.377  0.709  0.426-  27 2.59   8 2.63  25 2.63   6 2.63  16 2.64  15 2.64  44 2.76  30 2.79
                            52 2.87
  15  0.627  0.458  0.424-  17 2.62  25 2.63  27 2.63   9 2.64  14 2.64   7 2.65  44 2.75  18 2.76
                            75 2.80
  16  0.128  0.708  0.425-  12 2.61  25 2.62   4 2.63  14 2.64   5 2.65   6 2.65  33 2.77  30 2.78
                             2 2.87
  17  0.629  0.209  0.424-   9 2.61  15 2.62   4 2.65  11 2.65  25 2.66  60 2.69  13 2.69  18 2.76
                            19 2.88
  18  0.554  0.370  0.317-  67 2.53  75 2.55  60 2.57  68 2.59  26 2.68  44 2.68  19 2.72  30 2.75
                            17 2.76  15 2.76   3 2.78  25 2.91
  19  0.538  0.120  0.316-  59 2.55  80 2.55  68 2.57  43 2.60  61 2.61   1 2.62   3 2.67  18 2.72
                            60 2.74  17 2.88  11 2.90  13 3.00
  20  0.547  0.122  0.038-  57 2.54  37 2.59  48 2.60  62 2.60  47 2.60  34 2.65  45 2.68  63 2.71
                            56 2.75
  21  0.124  0.462  0.127-  36 2.55  47 2.57  40 2.58  58 2.61  42 2.61  64 2.63  31 2.66  69 2.66
                            50 2.67  74 2.69  70 2.69  57 2.69
  22  0.040  0.134  0.313-  65 2.47  75 2.54  55 2.54  77 2.57  39 2.59  43 2.60  60 2.65   2 2.65
                            52 2.75  10 2.81   9 2.82   6 2.88
  23  0.032  0.135  0.034-  70 2.57  62 2.59  40 2.59  41 2.60  76 2.63  45 2.70  24 2.70  35 2.71
                            53 2.86
  24  0.127  0.955  0.132-  79 2.52  55 2.55  53 2.61  35 2.62  77 2.62  58 2.62  73 2.64  70 2.65
                            38 2.67  66 2.68  23 2.70  41 2.74
  25  0.376  0.460  0.427-  16 2.62  14 2.63  15 2.63   5 2.64  13 2.66  17 2.66   3 2.82  30 2.84
                            18 2.91
  26  0.458  0.546  0.220-  73 2.50  74 2.51  51 2.53  79 2.60  64 2.61  30 2.65  68 2.66  18 2.68
                            32 2.69  44 2.70  78 2.71  67 2.74
  27  0.622  0.710  0.425-  82 1.89  14 2.59   8 2.61  15 2.63  11 2.66   7 2.71  44 2.72  12 2.72
                            29 2.79  61 2.81
  28  0.964  0.793  0.218-  66 2.54  50 2.56  58 2.58  77 2.63  42 2.64  64 2.65   2 2.66  79 2.68
                            59 2.70   1 2.71  49 2.75  33 2.75
  29  0.790  0.622  0.320-  44 2.59  39 2.60  42 2.60  32 2.62  75 2.63  61 2.65  33 2.66   1 2.67
                            49 2.68   7 2.77  27 2.79  12 2.87
  30  0.294  0.630  0.319-  79 2.57  64 2.60  44 2.61  52 2.62   2 2.64  26 2.65  33 2.70   3 2.72
                            18 2.75  16 2.78  14 2.79  25 2.84
  31  0.211  0.284  0.223-  57 2.55  70 2.55  65 2.59  43 2.60  55 2.61  80 2.64  21 2.66   3 2.66
                            39 2.66  68 2.67  42 2.71  64 2.72
  32  0.717  0.537  0.221-  69 2.51  54 2.56  51 2.57  65 2.60  42 2.61  29 2.62  75 2.64  67 2.64
                            49 2.68  26 2.69  44 2.74  78 2.78
  33  0.041  0.623  0.321-  42 2.57  39 2.58   3 2.62  64 2.64  29 2.66   1 2.66  30 2.70   2 2.74
                            28 2.75  12 2.77  16 2.77   5 2.78
  34  0.797  0.870  0.037-  50 2.48  66 2.50  36 2.54  48 2.61  35 2.62  63 2.64  71 2.65  20 2.65
                            62 2.72
  35  0.044  0.872  0.035-  58 2.56  36 2.57  66 2.61  24 2.62  34 2.62  72 2.70  23 2.71  62 2.72
                            53 2.74
  36  0.039  0.631  0.035-  58 2.54  34 2.54  21 2.55  35 2.57  50 2.59  40 2.68  71 2.72  72 2.76
                            47 2.78
  37  0.626  0.214  0.133-  68 2.52  59 2.52  67 2.52  41 2.56  51 2.57  56 2.58  66 2.59  20 2.59
                            74 2.60  62 2.60  57 2.64  48 2.76
  38  0.376  0.961  0.131-  80 2.47  53 2.51  55 2.53  78 2.53  63 2.53  45 2.55  54 2.58  48 2.61
                            57 2.62  24 2.67  70 2.69  73 2.69
  39  0.041  0.379  0.321-  33 2.58  22 2.59  42 2.60   3 2.60  29 2.60  75 2.63  65 2.66  31 2.66
                            43 2.71  10 2.72   7 2.73   5 2.78
  40  0.040  0.377  0.033-  69 2.55  21 2.58  23 2.59  76 2.61  70 2.61  45 2.66  71 2.67  36 2.68
                            47 2.81
  41  0.868  0.215  0.131-  67 2.47  65 2.53  76 2.53  77 2.53  37 2.56  51 2.56  62 2.57  69 2.59
                            23 2.60  70 2.61  66 2.63  24 2.74
  42  0.960  0.545  0.225-  33 2.57  39 2.60  29 2.60  50 2.61  32 2.61  21 2.61  28 2.64  64 2.65
                            69 2.68  65 2.69  49 2.70  31 2.71
  43  0.293  0.119  0.319-  52 2.54  55 2.56  22 2.60  19 2.60  31 2.60  61 2.60   8 2.62  80 2.64
                             3 2.68  39 2.71  10 2.72  13 2.97
  44  0.541  0.630  0.321-  61 2.56  52 2.56  29 2.59  30 2.61  78 2.64  18 2.68  26 2.70  27 2.72
                            75 2.72  32 2.74  15 2.75  14 2.76
  45  0.292  0.126  0.037-  38 2.55  57 2.57  70 2.59  40 2.66  53 2.66  20 2.68  23 2.70  47 2.70
                            63 2.74
  46  0.545  0.626  0.042-  73 2.43  51 2.44  54 2.47  71 2.53  53 2.54  76 2.54  63 2.55  72 2.56
                            56 2.56
  47  0.307  0.374  0.039-  74 2.45  57 2.52  56 2.54  21 2.57  20 2.60  72 2.62  45 2.70  36 2.78
                            40 2.81
  48  0.628  0.952  0.133-  49 2.43  80 2.48  59 2.50  63 2.52  50 2.54  54 2.54  20 2.60  34 2.61
                            66 2.61  38 2.61  57 2.66  37 2.76
  49  0.701  0.798  0.223-  48 2.43  54 2.51  80 2.51  61 2.55  78 2.56  50 2.57   1 2.57  59 2.60
                            29 2.68  32 2.68  42 2.70  28 2.75
  50  0.866  0.710  0.128-  71 2.42  34 2.48  48 2.54  28 2.56  49 2.57  54 2.58  36 2.59  42 2.61
                            69 2.64  21 2.67  66 2.71  58 2.84
[...]
      2.46166      0.31661      4.92733         0.002141     -0.076795     -0.087469
      7.75154      3.52543      0.86333         0.236279     -0.524464      0.449651
      5.10291      1.89984      2.87069        -0.002994      0.048954     -0.070150
      5.17349      6.40557      2.77226        -0.061447      0.170603      0.016049
      7.65418      0.39388      4.89233         0.285432     -0.084496     -0.066865
      9.05570      1.14059      7.10152        -0.023178     -0.077183     -0.349880
[...]
      6.39598      2.67997      4.92292        -0.028950     -0.059053      0.008832
     11.64052      4.17844      2.78900         0.081462     -0.016638      0.036209
      2.34972      1.92500      2.86197        -0.017531      0.000051     -0.021202
     11.59075      5.72177      0.94802        -0.182382      0.127561      0.032019
      6.50379      5.69604      0.91052         0.047404     -0.141381      0.049766
      7.71278      6.45493      2.81038        -0.091325      0.063399      0.094146
      6.43155      4.20716      2.83788         0.096268     -0.076409     -0.208274
     10.36075      3.37874      7.00110        -0.040825     -0.054371     -0.043442
     10.36553      3.54396      0.90454        -0.333714     -0.048385      0.030126
     10.23662      0.46679      4.91587        -0.251684      0.035846     -0.027711
      9.06408      7.34028      4.95059         0.003376     -0.065304     -0.045109
      6.48344      7.27349      4.94428         0.118427     -0.092054     -0.099725
      5.04827      0.31035      4.87551         0.052416      0.034588      0.035479
      5.66409      0.68373     10.63329         0.012601      0.005549     -0.018831
     11.71517      5.71057     10.33200        -0.015118     -0.040458      0.140919
    total drift:                                0.013002     -0.020813      0.010293

  FREE ENERGIE OF THE ION-ELECTRON SYSTEM (eV)
  free  energy   TOTEN  =      -513.27127377 eV

  energy  without entropy=     -513.27127377  energy(sigma->0) =     -513.27127377

 d Force =-0.1682727E-02[-0.423E-02, 0.862E-03]  d Energy =-0.1250591E-02-0.432E-03
 d Force =-0.1046457E+02[-0.105E+02,-0.105E+02]  d Ewald  =-0.1046483E+02 0.252E-03

 Finite differences progress:
  Degree of freedom:   6/  6
  Displacement:        2/  2
  Total:              12/ 12

 SECOND DERIVATIVES (NOT SYMMETRIZED)
              81X         81Y         81Z         82X         82Y         82Z
 81X    -1.132092    0.821720    0.342772   -0.001444   -0.015501   -0.014641
 81Y     0.727569   -1.835864    0.372987    0.010979   -0.031551   -0.057638
 81Z     0.355397    0.432695   -7.757794   -0.012305    0.011652    0.027391
 82X    -0.005730    0.056202    0.029270   -1.478118   -0.325092    0.957169
 82Y    -0.006524    0.011654   -0.017764   -0.393301   -1.354538    0.152437
 82Z    -0.000903    0.022348    0.000509    0.934909    0.156493   -5.655189

 Eigenvectors and eigenvalues of the dynamical matrix

   1 f  =   43.657334 THz   274.307120 2PiTHz 1456.251868 cm-1   180.552285 meV
             X         Y         Z           dx          dy          dz
     12.956023  8.003881  6.980269            0           0           0
      5.117408  8.056417  6.951090            0           0           0
      5.031066  3.433417  7.061005            0           0           0
     14.336914  8.755130  9.327081            0           0           0
      3.768473  4.173598  9.382702            0           0           0
      6.421448  8.765171  9.278429            0           0           0
     11.680575  4.151678  9.345536            0           0           0
      9.026873  8.751432  9.173648            0           0           0
     10.359851  1.905445  9.280525            0           0           0
      2.446079  1.901002  9.282767            0           0           0
     11.683509  8.772690  9.445389            0           0           0
     13.032873  6.484478  9.402158            0           0           0
      5.060585  1.917354  9.544248            0           0           0
      7.724711  6.480257  9.380542            0           0           0
      9.034313  4.187889  9.324439            0           0           0
      5.087044  6.473937  9.348412            0           0           0
      7.745556  1.909241  9.319009            0           0           0
      7.807419  3.381160  6.984476            0           0           0
      6.319853  1.099526  6.945679            0           0           0
      6.427482  1.119509  0.843789            0           0           0
      3.744575  4.224976  2.802947            0           0           0
      1.135078  1.225554  6.889424            0           0           0
      1.053506  1.233006  0.757137            0           0           0
      6.379696  8.732318  2.895796            0           0           0
      6.404613  4.208253  9.397336            0           0           0
      7.715193  4.989863  4.841883            0           0           0
     10.312576  6.490348  9.356377            0           0           0
     14.366899  7.249662  4.787507            0           0           0
     11.627288  5.685264  7.035509            0           0           0
      6.427068  5.762512  7.020273            0           0           0
      3.728800  2.594869  4.899318            0           0           0
     10.407142  4.909645  4.852938            0           0           0
      3.728017  5.700971  7.059952            0           0           0
     13.010760  7.954144  0.822852            0           0           0
      5.070618  7.976644  0.759159            0           0           0
      3.747252  5.772328  0.772685            0           0           0
      7.739055  1.959228  2.918920            0           0           0
      9.045754  8.788967  2.872263            0           0           0
      2.429697  3.466970  7.054224            0           0           0
      2.407877  3.445951  0.736756            0           0           0
     10.298420  1.968233  2.881385            0           0           0
     13.013514  4.988054  4.944101            0           0           0
      3.723679  1.090974  7.020455            0           0           0
      9.039613  5.760727  7.068210            0           0           0
      3.746828  1.152850  0.819592            0           0           0
      9.065133  5.724714  0.925373            0           0           0
      5.212120  3.416365  0.860857            0           0           0
     11.656252  8.704956  2.917869            0           0           0
     11.621509  7.299740  4.901783            0           0           0
     12.899801  6.497445  2.823641            0           0           0
      9.013433  4.186125  2.819185            0           0           0
      7.795461  7.998226  6.950893            0           0           0
      7.810527  7.928589  0.868881            0           0           0
     10.316566  6.548306  2.894722            0           0           0
      2.461657  0.316610  4.927330            0           0           0
      7.751538  3.525426  0.863327            0           0           0
      5.102914  1.899843  2.870690            0           0           0
      5.173495  6.405568  2.772261            0           0           0
      7.654181  0.393883  4.892331            0           0           0
      9.055696  1.140586  7.101519            0           0           0
[...]
      6.395982  2.679971  4.922922            0           0           0
     11.640522  4.178437  2.789004            0           0           0
      2.349716  1.924995  2.861968            0           0           0
     11.590753  5.721772  0.948016            0           0           0
      6.503789  5.696041  0.910522            0           0           0
      7.712777  6.454929  2.810380            0           0           0
      6.431551  4.207157  2.837884            0           0           0
     10.360754  3.378736  7.001104            0           0           0
     10.365531  3.543965  0.904545            0           0           0
     10.236619  0.466792  4.915867            0           0           0
      9.064077  7.340275  4.950593            0           0           0
      6.483441  7.273487  4.944283            0           0           0
      5.048274  0.310346  4.875506            0           0           0
      5.664092  0.683726 10.633288    -0.045069   -0.061528    0.997061
     11.715173  5.710571 10.346996     0.000072    0.000478   -0.007226

[...]

   6 f  =   12.063856 THz    75.799441 2PiTHz  402.406898 cm-1    49.892115 meV
             X         Y         Z           dx          dy          dz
     12.956023  8.003881  6.980269            0           0           0
      5.117408  8.056417  6.951090            0           0           0
      5.031066  3.433417  7.061005            0           0           0
     14.336914  8.755130  9.327081            0           0           0
      3.768473  4.173598  9.382702            0           0           0
      6.421448  8.765171  9.278429            0           0           0
     11.680575  4.151678  9.345536            0           0           0
      9.026873  8.751432  9.173648            0           0           0
     10.359851  1.905445  9.280525            0           0           0
      2.446079  1.901002  9.282767            0           0           0
     11.683509  8.772690  9.445389            0           0           0
     13.032873  6.484478  9.402158            0           0           0
      5.060585  1.917354  9.544248            0           0           0
      7.724711  6.480257  9.380542            0           0           0
      9.034313  4.187889  9.324439            0           0           0
      5.087044  6.473937  9.348412            0           0           0
      7.745556  1.909241  9.319009            0           0           0
      7.807419  3.381160  6.984476            0           0           0
      6.319853  1.099526  6.945679            0           0           0
      6.427482  1.119509  0.843789            0           0           0
      3.744575  4.224976  2.802947            0           0           0
      1.135078  1.225554  6.889424            0           0           0
      1.053506  1.233006  0.757137            0           0           0
      6.379696  8.732318  2.895796            0           0           0
      6.404613  4.208253  9.397336            0           0           0
      7.715193  4.989863  4.841883            0           0           0
     10.312576  6.490348  9.356377            0           0           0
     14.366899  7.249662  4.787507            0           0           0
     11.627288  5.685264  7.035509            0           0           0
      6.427068  5.762512  7.020273            0           0           0
      3.728800  2.594869  4.899318            0           0           0
     10.407142  4.909645  4.852938            0           0           0
      3.728017  5.700971  7.059952            0           0           0
     13.010760  7.954144  0.822852            0           0           0
      5.070618  7.976644  0.759159            0           0           0
      3.747252  5.772328  0.772685            0           0           0
      7.739055  1.959228  2.918920            0           0           0
      9.045754  8.788967  2.872263            0           0           0
      2.429697  3.466970  7.054224            0           0           0
      2.407877  3.445951  0.736756            0           0           0
     10.298420  1.968233  2.881385            0           0           0
     13.013514  4.988054  4.944101            0           0           0
      3.723679  1.090974  7.020455            0           0           0
      9.039613  5.760727  7.068210            0           0           0
      3.746828  1.152850  0.819592            0           0           0
      9.065133  5.724714  0.925373            0           0           0
      5.212120  3.416365  0.860857            0           0           0
     11.656252  8.704956  2.917869            0           0           0
     11.621509  7.299740  4.901783            0           0           0
     12.899801  6.497445  2.823641            0           0           0
      9.013433  4.186125  2.819185            0           0           0
      7.795461  7.998226  6.950893            0           0           0
      7.810527  7.928589  0.868881            0           0           0
     10.316566  6.548306  2.894722            0           0           0
      2.461657  0.316610  4.927330            0           0           0
      7.751538  3.525426  0.863327            0           0           0
      5.102914  1.899843  2.870690            0           0           0
      5.173495  6.405568  2.772261            0           0           0
      7.654181  0.393883  4.892331            0           0           0
      9.055696  1.140586  7.101519            0           0           0
[...]
      6.395982  2.679971  4.922922            0           0           0
     11.640522  4.178437  2.789004            0           0           0
      2.349716  1.924995  2.861968            0           0           0
     11.590753  5.721772  0.948016            0           0           0
      6.503789  5.696041  0.910522            0           0           0
      7.712777  6.454929  2.810380            0           0           0
      6.431551  4.207157  2.837884            0           0           0
     10.360754  3.378736  7.001104            0           0           0
     10.365531  3.543965  0.904545            0           0           0
     10.236619  0.466792  4.915867            0           0           0
      9.064077  7.340275  4.950593            0           0           0
      6.483441  7.273487  4.944283            0           0           0
      5.048274  0.310346  4.875506            0           0           0
      5.664092  0.683726 10.633288     0.833807    0.545113    0.071361
     11.715173  5.710571 10.346996     0.035277   -0.035710    0.002521

 Finite differences POTIM=  1.500000000000000E-002
  LATTYP: Found a hexagonal cell.
 ALAT       =    10.5600004196
 C/A-ratio  =     2.0833332505

  Lattice vectors:

 A1 = (   5.2800002098,  -9.1452286274,   0.0000000000)
 A2 = ( -10.5600004196,   0.0000000000,   0.0000000000)
 A3 = (   0.0000000000,   0.0000000000, -22.0000000000)

Analysis of symmetry for initial positions (statically):
 Subroutine PRICEL returns:
 Original cell was already a primitive cell.

[...]

The static configuration has the point symmetry C_1 .

Analysis of symmetry for dynamics (positions and initial velocities):
 Subroutine PRICEL returns:
 Original cell was already a primitive cell.

[...]

The dynamic configuration has the point symmetry C_1 .

Analysis of constrained symmetry for selective dynamics:
 Subroutine PRICEL returns:
 Original cell was already a primitive cell.

[...]

The constrained configuration has the point symmetry C_1 .

Analysis of structural, dynamic, and magnetic symmetry:
 Subroutine PRICEL returns:
 Original cell was already a primitive cell.

 Routine SETGRP: Setting up the symmetry group for a
 hexagonal supercell.

 Subroutine GETGRP returns: Found  1 space group operations
 (whereof  1 operations were pure point group operations)
 out of a pool of 24 trial point group operations.

The magnetic configuration has the point symmetry C_1 .

 Subroutine INISYM returns: Found  1 space group operations
 (whereof  1 operations are pure point group operations),
 and found     1 'primitive' translations

 KPOINTS: mesh auto

Automatic generation of k-mesh.
Space group operators:
 irot       det(A)        alpha          n_x          n_y          n_z        tau_x        tau_y        tau_z
    1     1.000000     0.000001     1.000000     0.000000     0.000000     0.000000     0.000000     0.000000

 Subroutine IBZKPT returns following result:

 Found      4 irreducible k-points:

 Following reciprocal coordinates:
            Coordinates               Weight
  0.000000  0.000000  0.000000      1.000000
  0.500000  0.000000  0.000000      1.000000
  0.000000  0.500000  0.000000      1.000000
  0.500000  0.500000  0.000000      1.000000

 Following cartesian coordinates:
            Coordinates               Weight
  0.000000  0.000000  0.000000      1.000000
  0.047348 -0.027337  0.000000      1.000000
  0.000000  0.054673  0.000000      1.000000
  0.047348  0.027337  0.000000      1.000000

 TETIRR: Found     12 inequivalent tetrahedra from       24
 BZINTS: Fermi energy:  2.037201;777.000000 electrons
         Band energy:-669.434100;  BLOECHL correction: -0.087741