 vasp.5.4.4.18Apr17-6-g9f103f2a35 (build Nov 30 2020 22:55:02) complex

 executed on             LinuxIFC date 2023.08.08  21:33:31

 INCAR:
 POTCAR:    PAW_PBE Pt 04Feb2005
 POTCAR:    PAW_PBE H 15Jun2001

 POTCAR:    PAW_PBE Pt 04Feb2005
   VRHFIN =Pt: s1d9

   TITEL  = PAW_PBE Pt 04Feb2005
   POMASS =  195.080; ZVAL   =   10.000    mass and valenz
   ENMAX  =  230.283; ENMIN  =  172.712 eV

 POTCAR:    PAW_PBE H 15Jun2001
   VRHFIN =H: ultrasoft test

   TITEL  = PAW_PBE H 15Jun2001
   POMASS =    1.000; ZVAL   =    1.000    mass and valenz
   ENMAX  =  250.000; ENMIN  =  200.000 eV

 Optimization of the real space projectors (new method)

 maximal supplied QI-value         = 14.36
 optimisation between [QCUT,QGAM] = [ 11.92, 23.98] = [ 39.79,161.09] Ry
 Optimized for a Real-space Cutoff    1.49 Angstroem

   l    n(q)    QCUT    max X(q) W(low)/X(q) W(high)/X(q)  e(spline)
   2     10    11.920    66.195    0.79E-04    0.18E-03    0.24E-06
   2     10    11.920    64.643    0.81E-04    0.19E-03    0.24E-06
   0     11    11.920    95.520    0.28E-04    0.54E-04    0.18E-06
   0     11    11.920    63.403    0.27E-04    0.52E-04    0.17E-06
   1     10    11.920    19.961    0.18E-04    0.11E-03    0.23E-06
   1     10    11.920    13.289    0.25E-04    0.87E-04    0.19E-06
 Optimization of the real space projectors (new method)

 maximal supplied QI-value         = 34.20
 optimisation between [QCUT,QGAM] = [ 11.97, 23.94] = [ 40.13,160.53] Ry
 Optimized for a Real-space Cutoff    1.18 Angstroem

   l    n(q)    QCUT    max X(q) W(low)/X(q) W(high)/X(q)  e(spline)
   0      8    11.971    19.460    0.15E-03    0.31E-03    0.25E-06
   0      8    11.971    12.209    0.13E-03    0.29E-03    0.25E-06
   1      8    11.971     4.655    0.22E-03    0.24E-03    0.21E-06
  PAW_PBE Pt 04Feb2005                  :
  PAW_PBE H 15Jun2001                   :

 POSCAR: Pt   H
  positions in cartesian coordinates
 exchange correlation table for  LEXCH =        8
   RHO(1)=    0.500       N(1)  =     2000
   RHO(2)=  100.500       N(2)  =     4000

 ion  position               nearest neighbor table
   1  1.000  0.000  0.056-   5 2.64   9 2.64  13 2.64  29 2.64  57 2.64  37 2.64  42 2.84  54 2.84
                            14 2.92
   2  0.334  0.168  0.179-  14 2.62  26 2.62   6 2.63  42 2.64  30 2.64  38 2.65  11 2.80   7 2.85
                             9 2.90  21 2.90  13 2.91  15 2.96
   3  0.168  0.333  0.306-   7 2.61  15 2.61  43 2.63  39 2.64  27 2.65  31 2.65   8 2.76   6 2.83
                            48 2.85  14 2.94  10 2.97  12 3.04
   4  0.000  0.001  0.416-   8 2.64  16 2.64  32 2.64  40 2.64  60 2.65  12 2.65   7 2.79  27 2.84
                            63 2.91
   5  1.000  0.250  0.056-   1 2.64  45 2.64  33 2.64   9 2.64  29 2.64  25 2.64  18 2.87  10 2.88
                            14 2.91
   6  0.334  0.416  0.186-  62 2.63  14 2.63  26 2.63   2 2.63  10 2.63  34 2.63   3 2.83  43 2.83
                            15 2.84  49 3.02   9 3.02  45 3.03
   7  0.169  0.086  0.300-   3 2.61  15 2.62  11 2.63  27 2.65  35 2.66  63 2.67   4 2.79  16 2.82
                            14 2.84   2 2.85  42 2.93  12 3.13
   8  0.999  0.250  0.420-   4 2.64  32 2.64  28 2.64  48 2.64  36 2.65  12 2.66   3 2.76  27 2.90
                            31 2.90
   9  0.250  0.250  0.056-  21 2.64  13 2.64   1 2.64  49 2.64  45 2.64   5 2.64  14 2.90   2 2.90
                             6 3.02
  10  0.085  0.416  0.178-  14 2.62  34 2.63   6 2.63  18 2.64  46 2.65  22 2.66  39 2.81  31 2.81
                            45 2.88   5 2.88  33 2.89   3 2.97
  11  0.417  0.084  0.297-   7 2.63  19 2.63  35 2.64  23 2.64  15 2.65  47 2.66   2 2.80  30 2.84
                            38 2.86  20 2.87  16 2.88  24 2.88
  12  0.248  0.248  0.438-  66 2.16  65 2.19   4 2.65   8 2.66  16 2.66  48 2.67  52 2.67  24 2.68
                             3 3.04  15 3.05   7 3.13
  13  0.250  0.000  0.056-  21 2.64   9 2.64  17 2.64   1 2.64  37 2.64  41 2.64  42 2.84  38 2.85
                             2 2.91
  14  0.085  0.168  0.180-   2 2.62  10 2.62   6 2.63  42 2.64  18 2.65  54 2.66  27 2.80   7 2.84
                             9 2.90   5 2.91   1 2.92   3 2.94
  15  0.416  0.334  0.307-  43 2.61   3 2.61  55 2.61   7 2.62  19 2.65  11 2.65  24 2.72   6 2.84
                             2 2.96  26 2.96  12 3.05  52 3.05
  16  0.249  1.000  0.418-  44 2.64   4 2.64  40 2.64  24 2.64  20 2.64  12 2.66   7 2.82  11 2.88
                            35 2.92
  17  0.500  0.000  0.056-  29 2.64  25 2.64  13 2.64  21 2.64  41 2.64  53 2.64  38 2.85  30 2.86
                            58 2.87
  18  0.834  0.167  0.177-  54 2.63  22 2.64  10 2.64  14 2.65  58 2.65  30 2.65  31 2.82  27 2.83
                            23 2.84   5 2.87  29 2.87  25 2.87
  19  0.666  0.333  0.296-  55 2.63  11 2.63  59 2.64  23 2.64  15 2.65  31 2.66  26 2.80  30 2.84
                            22 2.86  64 2.87  28 2.87  24 2.88
  20  0.500  1.000  0.418-  32 2.64  56 2.64  28 2.64  44 2.64  24 2.64  16 2.64  23 2.87  11 2.87
                            47 2.87
  21  0.500  0.250  0.056-  25 2.64  61 2.64   9 2.64  13 2.64  49 2.64  17 2.64  30 2.86  26 2.90
                             2 2.90
  22  0.833  0.416  0.176-  30 2.64  18 2.64  50 2.64  46 2.64  26 2.66  10 2.66  59 2.80  25 2.84
                            33 2.84  61 2.85  31 2.85  19 2.86
  23  0.667  0.083  0.297-  11 2.64  47 2.64  19 2.64  31 2.64  27 2.64  51 2.65  58 2.84  18 2.84
                            30 2.84  28 2.86  20 2.87  32 2.87
  24  0.500  0.250  0.419-  28 2.64  20 2.64  64 2.64  16 2.64  12 2.68  52 2.68  15 2.72  11 2.88
                            19 2.88
  25  0.750  0.250  0.056-  17 2.64  21 2.64  29 2.64  61 2.64  33 2.64   5 2.64  22 2.84  30 2.86
                            18 2.87
  26  0.582  0.416  0.179-  62 2.62   2 2.62   6 2.63  50 2.64  30 2.64  22 2.66  19 2.80  55 2.85
                            49 2.90  21 2.90  61 2.91  15 2.96
  27  0.917  0.084  0.297-  31 2.63  63 2.63  23 2.64   7 2.65  51 2.65   3 2.65  14 2.80  18 2.83
                             4 2.84  54 2.86  32 2.87   8 2.90
  28  0.750  0.250  0.418-  32 2.64   8 2.64  20 2.64  24 2.64  36 2.64  64 2.64  23 2.86  19 2.87
                            31 2.88
  29  0.750  0.000  0.056-  17 2.64  25 2.64   5 2.64  53 2.64   1 2.64  57 2.64  54 2.84  18 2.87
                            58 2.87
  30  0.583  0.167  0.177-  38 2.64  22 2.64   2 2.64  26 2.64  18 2.65  58 2.65  19 2.84  11 2.84
                            23 2.84  21 2.86  25 2.86  17 2.86
  31  0.917  0.333  0.296-  27 2.63  39 2.64  23 2.64  59 2.64   3 2.65  19 2.66  10 2.81  18 2.82
                            36 2.84  22 2.85  28 2.88   8 2.90
  32  0.750  0.000  0.418-  20 2.64  28 2.64   8 2.64  56 2.64   4 2.64  60 2.64  23 2.87  51 2.87
                            27 2.87
  33  1.000  0.500  0.056-  37 2.64  41 2.64   5 2.64  45 2.64  25 2.64  61 2.64  46 2.82  22 2.84
                            10 2.89
  34  0.334  0.665  0.178-  62 2.62  10 2.63   6 2.63  58 2.64  46 2.65  38 2.66  39 2.81  47 2.82
                            45 2.88  53 2.88  41 2.90  43 2.97
  35  0.168  0.834  0.293-  11 2.64  47 2.64  63 2.65  59 2.66   7 2.66  39 2.67  38 2.80  42 2.81
                            40 2.82  46 2.83  44 2.88  16 2.92
  36  0.999  0.500  0.416-  48 2.64  64 2.64  28 2.64  40 2.64  44 2.64   8 2.65  31 2.84  39 2.84
                            59 2.88
  37  1.000  0.750  0.056-  33 2.64  41 2.64  61 2.64  57 2.64  13 2.64   1 2.64  46 2.83  50 2.85
                            42 2.85
  38  0.334  0.917  0.176-  30 2.64  58 2.64  42 2.64  46 2.64   2 2.65  34 2.66  35 2.80  17 2.85
                            41 2.85  13 2.85  47 2.85  11 2.86
  39  0.168  0.582  0.296-  43 2.64   3 2.64  47 2.64  31 2.64  35 2.67  59 2.67  34 2.81  10 2.81
                            36 2.84  44 2.84  46 2.88  48 2.98
  40  0.999  0.750  0.411-  64 2.64  36 2.64  16 2.64  44 2.64   4 2.64  60 2.64  35 2.82  59 2.82
                            63 2.82
  41  0.250  0.750  0.056-  45 2.64  33 2.64  37 2.64  53 2.64  17 2.64  13 2.64  46 2.82  38 2.85
                            34 2.90
  42  0.084  0.918  0.176-  14 2.64   2 2.64  38 2.64  54 2.65  46 2.66  50 2.66  63 2.80  35 2.81
                            13 2.84   1 2.84  37 2.85   7 2.93
  43  0.417  0.582  0.306-  55 2.61  15 2.61   3 2.63  39 2.64  51 2.65  47 2.65  56 2.76   6 2.83
                            48 2.85  62 2.94  34 2.97  52 3.05
  44  0.250  0.750  0.416-  48 2.64  16 2.64  20 2.64  36 2.64  40 2.64  56 2.65  47 2.84  39 2.84
                            35 2.88
  45  0.250  0.500  0.056-  41 2.64  53 2.64   5 2.64   9 2.64  49 2.64  33 2.64  10 2.88  34 2.88
                             6 3.03
  46  0.084  0.666  0.175-  38 2.64  22 2.64  34 2.65  10 2.65  42 2.66  50 2.66  41 2.82  33 2.82
                            59 2.82  37 2.83  35 2.83  39 2.88
  47  0.417  0.833  0.296-  51 2.63  39 2.64  23 2.64  35 2.64  43 2.65  11 2.66  34 2.82  58 2.83
                            44 2.84  38 2.85  20 2.87  56 2.90
  48  0.249  0.501  0.426-  36 2.64  44 2.64   8 2.64  56 2.65  52 2.67  12 2.67  43 2.85   3 2.85
                            39 2.98
  49  0.500  0.500  0.056-  61 2.64  53 2.64  57 2.64  21 2.64   9 2.64  45 2.64  26 2.90  62 2.91
                             6 3.02
  50  0.832  0.666  0.176-  62 2.64  26 2.64  22 2.64  54 2.65  46 2.66  42 2.66  63 2.80  59 2.80
                            61 2.84  57 2.84  37 2.85  55 2.93
  51  0.666  0.833  0.297-  47 2.63  63 2.63  55 2.64  23 2.65  43 2.65  27 2.65  62 2.80  58 2.83
                            60 2.84  54 2.87  32 2.87  56 2.90
  52  0.501  0.502  0.438-  65 2.14  66 2.18  60 2.65  56 2.66  64 2.66  48 2.67  12 2.67  24 2.68
                            43 3.05  15 3.05  55 3.14
  53  0.500  0.750  0.056-  49 2.64  57 2.64  45 2.64  41 2.64  29 2.64  17 2.64  58 2.87  34 2.88
                            62 2.92
  54  0.833  0.917  0.175-  58 2.63  18 2.63  50 2.65  42 2.65  62 2.66  14 2.66  63 2.79  29 2.84
                            57 2.84   1 2.84  27 2.86  51 2.87
  55  0.664  0.581  0.300-  43 2.61  15 2.61  19 2.63  51 2.64  59 2.66  63 2.67  60 2.79  64 2.81
                            62 2.84  26 2.85  50 2.93  52 3.14
  56  0.500  0.750  0.420-  60 2.64  32 2.64  20 2.64  44 2.65  48 2.65  52 2.66  43 2.76  51 2.90
                            47 2.90
  57  0.750  0.750  0.056-  61 2.64  49 2.64  53 2.64  37 2.64   1 2.64  29 2.64  50 2.84  54 2.84
                            62 2.92
  58  0.583  0.916  0.177-  54 2.63  38 2.64  34 2.64  62 2.65  18 2.65  30 2.65  47 2.83  51 2.83
                            23 2.84  53 2.87  29 2.87  17 2.87
  59  0.916  0.583  0.293-  19 2.64  31 2.64  63 2.65  35 2.66  55 2.66  39 2.67  22 2.80  50 2.80
                            40 2.82  46 2.82  36 2.88  64 2.92
  60  0.749  0.750  0.417-  56 2.64  64 2.64  32 2.64  40 2.64   4 2.65  52 2.65  55 2.79  51 2.84
                            63 2.92
  61  0.750  0.500  0.056-  49 2.64  57 2.64  21 2.64  25 2.64  37 2.64  33 2.64  50 2.84  22 2.85
[...]
      1.328107  0.790720  6.004609            0           0           0
      9.235638  2.283554  8.403593            0           0           0
      1.319975  2.286321  1.115846            0           0           0
     -1.300548  3.805500  3.564137            0           0           0
      3.957247  0.768218  5.934067            0           0           0
      1.307344  2.270260  8.762383            0           0           0
      2.639975  0.000014  1.115846            0           0           0
      0.014226  1.536459  3.593930            0           0           0
      2.628213  3.056195  6.131771            0           0           0
     -2.644587  9.143687  8.368561            0           0           0
      5.279976  0.000014  1.115846            0           0           0
      7.927624  1.524149  3.546793            0           0           0
      5.273628  3.048375  5.928865            0           0           0
     -0.000933  9.144529  8.361845            0           0           0
      3.959975  2.286321  1.115846            0           0           0
      6.601563  3.805188  3.517025            0           0           0
      6.597756  0.763253  5.934927            0           0           0
      3.958591  2.285374  8.376647            0           0           0
      6.599975  2.286321  1.115846            0           0           0
      3.947164  3.808359  3.587344            0           0           0
      9.242522  0.764745  5.931741            0           0           0
      6.598184  2.285001  8.360979            0           0           0
      7.919975  0.000014  1.115846            0           0           0
      5.276024  1.526566  3.535822            0           0           0
      7.929098  3.044310  5.924635            0           0           0
      7.915575  0.000881  8.364202            0           0           0
      7.919976  4.572628  1.115846            0           0           0
      0.014726  6.083411  3.565964            0           0           0
     -2.634968  7.628854  5.868897            0           0           0
      7.913556  4.573305  8.312266            0           0           0
      6.599976  6.858935  1.115846            0           0           0
     -1.314408  8.385226  3.522105            0           0           0
     -1.298865  5.323385  5.928920            0           0           0
      6.593829  6.860398  8.227951            0           0           0
     -1.320025  6.858935  1.115846            0           0           0
     -3.956960  8.395814  3.512460            0           0           0
      1.329941  5.323385  6.120492            0           0           0
     -1.325196  6.861498  8.320785            0           0           0
     -0.000025  4.572628  1.115846            0           0           0
     -2.631962  6.093307  3.493172            0           0           0
      0.008318  7.615031  5.929004            0           0           0
     -0.017881  4.580110  8.514366            0           0           0
      2.639975  4.572628  1.115846            0           0           0
      5.270168  6.088523  3.512379            0           0           0
      2.639056  7.616944  5.937652            0           0           0
      2.642924  4.587681  8.769558            0           0           0
      1.319976  6.858935  1.115846            0           0           0
      3.956977  8.384564  3.509693            0           0           0
      3.938954  5.314837  6.008952            0           0           0
      1.318864  6.860982  8.409246            0           0           0
      3.959975  6.858935  1.115846            0           0           0
      1.323817  8.376487  3.547741            0           0           0
      6.596294  5.327403  5.863246            0           0           0
      3.953203  6.855426  8.340672            0           0           0
      5.279975  4.572628  1.115846            0           0           0
      2.636405  6.078614  3.600133            0           0           0
      5.271894  7.624802  5.855142            0           0           0
      5.276444  4.574368  8.362016            0           0           0
      1.633041  3.660794 10.417331    -0.586685    0.342929   -0.168008
      2.333436  3.206033 10.421436    -0.587852    0.340778    0.219716

   4 f/i=   12.956643 THz    81.408992 2PiTHz  432.187091 cm-1    53.584389 meV
             X         Y         Z           dx          dy          dz
     10.559976  0.000014  1.115846            0           0           0
      2.635974  1.536674  3.589333            0           0           0
      0.015204  3.045633  6.116491            0           0           0
     -0.002305  0.004902  8.328721            0           0           0
      9.239976  2.286321  1.115846            0           0           0
      1.324996  3.807886  3.727131            0           0           0
      1.328107  0.790720  6.004609            0           0           0
      9.235638  2.283554  8.403593            0           0           0
      1.319975  2.286321  1.115846            0           0           0
     -1.300548  3.805500  3.564137            0           0           0
      3.957247  0.768218  5.934067            0           0           0
      1.307344  2.270260  8.762383            0           0           0
      2.639975  0.000014  1.115846            0           0           0
      0.014226  1.536459  3.593930            0           0           0
      2.628213  3.056195  6.131771            0           0           0
     -2.644587  9.143687  8.368561            0           0           0
      5.279976  0.000014  1.115846            0           0           0
      7.927624  1.524149  3.546793            0           0           0
      5.273628  3.048375  5.928865            0           0           0
     -0.000933  9.144529  8.361845            0           0           0
      3.959975  2.286321  1.115846            0           0           0
      6.601563  3.805188  3.517025            0           0           0
      6.597756  0.763253  5.934927            0           0           0
      3.958591  2.285374  8.376647            0           0           0
      6.599975  2.286321  1.115846            0           0           0
      3.947164  3.808359  3.587344            0           0           0
      9.242522  0.764745  5.931741            0           0           0
      6.598184  2.285001  8.360979            0           0           0
      7.919975  0.000014  1.115846            0           0           0
      5.276024  1.526566  3.535822            0           0           0
      7.929098  3.044310  5.924635            0           0           0
      7.915575  0.000881  8.364202            0           0           0
      7.919976  4.572628  1.115846            0           0           0
      0.014726  6.083411  3.565964            0           0           0
     -2.634968  7.628854  5.868897            0           0           0
      7.913556  4.573305  8.312266            0           0           0
      6.599976  6.858935  1.115846            0           0           0
     -1.314408  8.385226  3.522105            0           0           0
     -1.298865  5.323385  5.928920            0           0           0
      6.593829  6.860398  8.227951            0           0           0
     -1.320025  6.858935  1.115846            0           0           0
     -3.956960  8.395814  3.512460            0           0           0
      1.329941  5.323385  6.120492            0           0           0
     -1.325196  6.861498  8.320785            0           0           0
     -0.000025  4.572628  1.115846            0           0           0
     -2.631962  6.093307  3.493172            0           0           0
      0.008318  7.615031  5.929004            0           0           0
     -0.017881  4.580110  8.514366            0           0           0
      2.639975  4.572628  1.115846            0           0           0
      5.270168  6.088523  3.512379            0           0           0
      2.639056  7.616944  5.937652            0           0           0
      2.642924  4.587681  8.769558            0           0           0
      1.319976  6.858935  1.115846            0           0           0
      3.956977  8.384564  3.509693            0           0           0
      3.938954  5.314837  6.008952            0           0           0
      1.318864  6.860982  8.409246            0           0           0
      3.959975  6.858935  1.115846            0           0           0
      1.323817  8.376487  3.547741            0           0           0
      6.596294  5.327403  5.863246            0           0           0
      3.953203  6.855426  8.340672            0           0           0
      5.279975  4.572628  1.115846            0           0           0
      2.636405  6.078614  3.600133            0           0           0
      5.271894  7.624802  5.855142            0           0           0
      5.276444  4.574368  8.362016            0           0           0
      1.633041  3.660794 10.417331     0.366746    0.630600    0.046146
      2.333436  3.206033 10.421436     0.336178    0.593817    0.008780

[...]

   6 f/i=   18.804641 THz   118.153046 2PiTHz  627.255299 cm-1    77.769773 meV
             X         Y         Z           dx          dy          dz
     10.559976  0.000014  1.115846            0           0           0
      2.635974  1.536674  3.589333            0           0           0
      0.015204  3.045633  6.116491            0           0           0
     -0.002305  0.004902  8.328721            0           0           0
      9.239976  2.286321  1.115846            0           0           0
      1.324996  3.807886  3.727131            0           0           0
      1.328107  0.790720  6.004609            0           0           0
      9.235638  2.283554  8.403593            0           0           0
      1.319975  2.286321  1.115846            0           0           0
     -1.300548  3.805500  3.564137            0           0           0
      3.957247  0.768218  5.934067            0           0           0
      1.307344  2.270260  8.762383            0           0           0
      2.639975  0.000014  1.115846            0           0           0
      0.014226  1.536459  3.593930            0           0           0
      2.628213  3.056195  6.131771            0           0           0
     -2.644587  9.143687  8.368561            0           0           0
      5.279976  0.000014  1.115846            0           0           0
      7.927624  1.524149  3.546793            0           0           0
      5.273628  3.048375  5.928865            0           0           0
     -0.000933  9.144529  8.361845            0           0           0
      3.959975  2.286321  1.115846            0           0           0
      6.601563  3.805188  3.517025            0           0           0
      6.597756  0.763253  5.934927            0           0           0
      3.958591  2.285374  8.376647            0           0           0
      6.599975  2.286321  1.115846            0           0           0
      3.947164  3.808359  3.587344            0           0           0
      9.242522  0.764745  5.931741            0           0           0
      6.598184  2.285001  8.360979            0           0           0
      7.919975  0.000014  1.115846            0           0           0
      5.276024  1.526566  3.535822            0           0           0
      7.929098  3.044310  5.924635            0           0           0
      7.915575  0.000881  8.364202            0           0           0
      7.919976  4.572628  1.115846            0           0           0
      0.014726  6.083411  3.565964            0           0           0
     -2.634968  7.628854  5.868897            0           0           0
      7.913556  4.573305  8.312266            0           0           0
      6.599976  6.858935  1.115846            0           0           0
     -1.314408  8.385226  3.522105            0           0           0
     -1.298865  5.323385  5.928920            0           0           0
      6.593829  6.860398  8.227951            0           0           0
     -1.320025  6.858935  1.115846            0           0           0
     -3.956960  8.395814  3.512460            0           0           0
      1.329941  5.323385  6.120492            0           0           0
     -1.325196  6.861498  8.320785            0           0           0
     -0.000025  4.572628  1.115846            0           0           0
     -2.631962  6.093307  3.493172            0           0           0
      0.008318  7.615031  5.929004            0           0           0
     -0.017881  4.580110  8.514366            0           0           0
      2.639975  4.572628  1.115846            0           0           0
      5.270168  6.088523  3.512379            0           0           0
      2.639056  7.616944  5.937652            0           0           0
      2.642924  4.587681  8.769558            0           0           0
      1.319976  6.858935  1.115846            0           0           0
      3.956977  8.384564  3.509693            0           0           0
      3.938954  5.314837  6.008952            0           0           0
      1.318864  6.860982  8.409246            0           0           0
      3.959975  6.858935  1.115846            0           0           0
      1.323817  8.376487  3.547741            0           0           0
      6.596294  5.327403  5.863246            0           0           0
      3.953203  6.855426  8.340672            0           0           0
      5.279975  4.572628  1.115846            0           0           0
      2.636405  6.078614  3.600133            0           0           0
      5.271894  7.624802  5.855142            0           0           0
      5.276444  4.574368  8.362016            0           0           0
      1.633041  3.660794 10.417331     0.307654    0.567482   -0.252370
      2.333436  3.206033 10.421436    -0.338593   -0.577386   -0.267587

 Finite differences POTIM=  1.500000000000000E-002
  LATTYP: Found a hexagonal cell.
 ALAT       =    10.5600004196
 C/A-ratio  =     1.8939393187

  Lattice vectors:

 A1 = (  10.5600004196,   0.0000000000,   0.0000000000)
 A2 = (  -5.2800002098,   9.1452286274,   0.0000000000)
 A3 = (   0.0000000000,   0.0000000000,  20.0000000000)

Analysis of symmetry for initial positions (statically):
 Subroutine PRICEL returns:
 Original cell was already a primitive cell.

[...]

The static configuration has the point symmetry C_1 .

Analysis of symmetry for dynamics (positions and initial velocities):
 Subroutine PRICEL returns:
 Original cell was already a primitive cell.

[...]

The dynamic configuration has the point symmetry C_1 .

Analysis of constrained symmetry for selective dynamics:
 Subroutine PRICEL returns:
 Original cell was already a primitive cell.

[...]

The constrained configuration has the point symmetry C_1 .

Analysis of structural, dynamic, and magnetic symmetry:
 Subroutine PRICEL returns:
 Original cell was already a primitive cell.

 Routine SETGRP: Setting up the symmetry group for a
 hexagonal supercell.

 Subroutine GETGRP returns: Found  1 space group operations
 (whereof  1 operations were pure point group operations)
 out of a pool of 24 trial point group operations.

The magnetic configuration has the point symmetry C_1 .

 Subroutine INISYM returns: Found  1 space group operations
 (whereof  1 operations are pure point group operations),
 and found     1 'primitive' translations

 KPOINTS: mesh auto

Automatic generation of k-mesh.
Space group operators:
 irot       det(A)        alpha          n_x          n_y          n_z        tau_x        tau_y        tau_z
    1     1.000000     0.000000     1.000000     0.000000     0.000000     0.000000     0.000000     0.000000

 Subroutine IBZKPT returns following result:

 Found      4 irreducible k-points:

 Following reciprocal coordinates:
            Coordinates               Weight
  0.000000  0.000000  0.000000      1.000000
  0.500000 -0.000000  0.000000      1.000000
  0.000000  0.500000  0.000000      1.000000
  0.500000  0.500000  0.000000      1.000000

 Following cartesian coordinates:
            Coordinates               Weight
  0.000000  0.000000  0.000000      1.000000
  0.047348  0.027337  0.000000      1.000000
  0.000000  0.054673  0.000000      1.000000
  0.047348  0.082010  0.000000      1.000000

 TETIRR: Found     12 inequivalent tetrahedra from       24
 BZINTS: Fermi energy:  2.779182;642.000000 electrons
         Band energy:-462.542074;  BLOECHL correction: -0.067827