 vasp.5.4.4.18Apr17-6-g9f103f2a35 (build Nov 30 2020 22:55:02) complex

 executed on             LinuxIFC date 2023.09.08  21:30:49

 INCAR:
 POTCAR:    PAW_PBE Pt 04Feb2005
 POTCAR:    PAW_PBE Pt 04Feb2005
   VRHFIN =Pt: s1d9

   TITEL  = PAW_PBE Pt 04Feb2005
   POMASS =  195.080; ZVAL   =   10.000    mass and valenz
   ENMAX  =  230.283; ENMIN  =  172.712 eV

 Optimization of the real space projectors (new method)

 maximal supplied QI-value         = 14.36
 optimisation between [QCUT,QGAM] = [ 11.92, 23.98] = [ 39.79,161.09] Ry
 Optimized for a Real-space Cutoff    1.49 Angstroem

   l    n(q)    QCUT    max X(q) W(low)/X(q) W(high)/X(q)  e(spline)
   2     10    11.920    66.195    0.79E-04    0.18E-03    0.24E-06
   2     10    11.920    64.643    0.81E-04    0.19E-03    0.24E-06
   0     11    11.920    95.520    0.28E-04    0.54E-04    0.18E-06
   0     11    11.920    63.403    0.27E-04    0.52E-04    0.17E-06
   1     10    11.920    19.961    0.18E-04    0.11E-03    0.23E-06
   1     10    11.920    13.289    0.25E-04    0.87E-04    0.19E-06
  PAW_PBE Pt 04Feb2005                  :

 POSCAR: Pt111
  positions in direct lattice
  velocities in cartesian coordinates
 exchange correlation table for  LEXCH =        8
   RHO(1)=    0.500       N(1)  =     2000
   RHO(2)=  100.500       N(2)  =     4000

 ion  position               nearest neighbor table
   1  0.784  0.869  0.327-  71 2.74  20 2.74  55 2.74  27 2.78  35 2.78  34 2.79  43 2.80  56 2.80
                             3 2.80  73 2.80   2 2.81  72 2.81
   2  0.034  0.870  0.327-  55 2.74  65 2.74  68 2.74  29 2.78  39 2.78  27 2.78  72 2.80   3 2.80
                            57 2.81  23 2.81  47 2.81   1 2.81
   3  0.034  0.620  0.327-  12 2.73  55 2.74  76 2.74  39 2.78  28 2.78  35 2.79   9 2.80   1 2.80
                             2 2.80  56 2.81  57 2.81  15 2.81
   4  0.788  0.867  0.023-  21 2.78  78 2.78  19 2.79   6 2.80  58 2.81   5 2.81  75 2.81  44 2.81
                            74 2.81
   5  0.037  0.868  0.023-  49 2.78  70 2.78  78 2.79  74 2.80  24 2.81   4 2.81  59 2.81  48 2.81
                             6 2.81
   6  0.037  0.617  0.024-  46 2.78  70 2.78  21 2.79   4 2.80  18 2.80  59 2.80  10 2.80  58 2.81
                             5 2.81
   7  0.620  0.202  0.126-  71 2.73  79 2.74  80 2.75  42 2.78  44 2.78  74 2.79  53 2.80  78 2.81
                            22 2.81  19 2.81  61 2.81  11 2.81
   8  0.370  0.952  0.126-  66 2.73  69 2.74  26 2.74  16 2.78  24 2.78  75 2.80  25 2.80  19 2.80
                            49 2.80  54 2.81  60 2.81  53 2.81
   9  0.035  0.370  0.327-  12 2.74  77 2.74  62 2.74  33 2.78  28 2.78  30 2.78   3 2.80  15 2.81
                            13 2.81  56 2.81  63 2.81  47 2.81
  10  0.037  0.368  0.024-  54 2.78  46 2.78  45 2.79  48 2.80   6 2.80  18 2.81  58 2.81  64 2.81
                            16 2.81
  11  0.870  0.202  0.126-  65 2.73  77 2.74  79 2.74  64 2.78  74 2.79  48 2.79  45 2.80  49 2.81
                            54 2.81   7 2.81  22 2.81  78 2.81
  12  0.952  0.536  0.227-  21 2.73   3 2.73   9 2.74  45 2.74  46 2.74  56 2.74  77 2.80  55 2.80
                            76 2.80  20 2.81  67 2.81  62 2.81
  13  0.285  0.119  0.327-  62 2.74  26 2.74  69 2.74  31 2.78  36 2.78  33 2.79  73 2.80  43 2.80
                            23 2.81  47 2.81   9 2.81  15 2.81
  14  0.534  0.619  0.327-  51 2.74  66 2.74  67 2.74  52 2.78  38 2.78  37 2.79  41 2.80  57 2.80
                            73 2.80  56 2.80  23 2.81  63 2.81
  15  0.285  0.370  0.327-  76 2.73  62 2.74  80 2.74  50 2.78  36 2.78  28 2.79  41 2.80  57 2.80
                             9 2.81  43 2.81  13 2.81   3 2.81
  16  0.288  0.118  0.023-   8 2.78  53 2.78  54 2.79  44 2.80  18 2.80  75 2.80  48 2.81  24 2.81
                            10 2.81
  17  0.537  0.617  0.023-  22 2.78  25 2.78  60 2.79  59 2.80  24 2.80  42 2.80  64 2.81  58 2.81
                            75 2.81
  18  0.287  0.368  0.024-  53 2.78  61 2.78  46 2.79  59 2.80   6 2.80  16 2.80  10 2.81  42 2.81
                            44 2.81
  19  0.620  0.952  0.126-  20 2.73  71 2.74  69 2.75  44 2.78  75 2.78   4 2.79  21 2.80   8 2.80
                            53 2.81  78 2.81  25 2.81   7 2.81
  20  0.701  0.786  0.226-  19 2.73  25 2.74   1 2.74  56 2.74  21 2.74  73 2.74  67 2.80  69 2.80
                            12 2.81  66 2.81  55 2.81  71 2.81
  21  0.869  0.702  0.126-  12 2.73  55 2.74  20 2.74   4 2.78  58 2.78   6 2.79  45 2.80  19 2.80
                            46 2.81  70 2.81  78 2.81  25 2.81
  22  0.619  0.452  0.126-  79 2.73  67 2.74  51 2.75  17 2.78  42 2.78  64 2.79  25 2.80  61 2.80
                            60 2.81   7 2.81  45 2.81  11 2.81
  23  0.284  0.870  0.327-  68 2.74  26 2.74  66 2.74  31 2.78  37 2.78  29 2.79  73 2.80  57 2.80
                            47 2.80  14 2.81   2 2.81  13 2.81
  24  0.287  0.868  0.023-  60 2.78   8 2.78  49 2.79  48 2.80  17 2.80   5 2.81  75 2.81  16 2.81
                            59 2.81
  25  0.619  0.702  0.126-  20 2.74  67 2.74  66 2.75  17 2.78  75 2.78  58 2.79  22 2.80   8 2.80
                            60 2.80  45 2.81  19 2.81  21 2.81
  26  0.202  0.036  0.227-  54 2.73  23 2.74  49 2.74  13 2.74  47 2.74   8 2.74  66 2.80  69 2.80
                            77 2.81  65 2.81  62 2.81  68 2.81
  27  0.867  0.953  0.430-   1 2.78  72 2.78   2 2.78  40 2.80  29 2.80  34 2.80  39 2.81  35 2.81
                            32 2.81
  28  0.118  0.453  0.430-   3 2.78   9 2.78  15 2.79  39 2.80  50 2.80  36 2.81  35 2.81  30 2.81
                            33 2.81
  29  0.117  0.953  0.430-   2 2.78  47 2.78  23 2.79  32 2.80  39 2.80  27 2.80  31 2.81  37 2.81
                            33 2.81
  30  0.868  0.453  0.430-  63 2.78   9 2.78  56 2.78  33 2.80  35 2.80  32 2.81  38 2.81  28 2.81
                            52 2.81
  31  0.367  0.953  0.430-  13 2.78  23 2.78  73 2.79  33 2.80  37 2.80  29 2.81  36 2.81  34 2.81
                            52 2.81
  32  0.867  0.203  0.430-  63 2.78  72 2.78  47 2.79  29 2.80  38 2.80  30 2.81  40 2.81  27 2.81
                            33 2.81
  33  0.117  0.203  0.430-   9 2.78  47 2.79  13 2.79  30 2.80  31 2.80  36 2.81  32 2.81  28 2.81
                            29 2.81
  34  0.617  0.953  0.430-  43 2.78  73 2.78   1 2.79  35 2.80  36 2.80  27 2.80  52 2.81  31 2.81
                            40 2.81
  35  0.867  0.703  0.430-  56 2.78   1 2.78   3 2.79  52 2.80  34 2.80  30 2.80  27 2.81  28 2.81
                            39 2.81
  36  0.367  0.203  0.430-  13 2.78  15 2.78  43 2.79  40 2.80  34 2.80  33 2.81  31 2.81  28 2.81
                            50 2.81
  37  0.367  0.703  0.430-  57 2.78  23 2.78  14 2.79  31 2.80  52 2.80  50 2.80  39 2.81  29 2.81
                            38 2.81
  38  0.618  0.453  0.430-  41 2.78  14 2.78  63 2.79  32 2.80  52 2.80  50 2.80  40 2.81  30 2.81
                            37 2.81
  39  0.117  0.703  0.430-   3 2.78   2 2.78  57 2.79  28 2.80  29 2.80  27 2.81  37 2.81  50 2.81
                            35 2.81
  40  0.617  0.203  0.430-  43 2.78  41 2.78  72 2.79  27 2.80  36 2.80  32 2.81  38 2.81  34 2.81
                            50 2.81
  41  0.535  0.370  0.327-  51 2.74  80 2.74  79 2.75  38 2.78  40 2.78  50 2.79  14 2.80  15 2.80
                            63 2.80  72 2.80  57 2.81  43 2.81
  42  0.537  0.367  0.023-   7 2.78  22 2.78  61 2.80  44 2.80  17 2.80  18 2.81  64 2.81  74 2.81
                            59 2.81
  43  0.535  0.119  0.327-  69 2.74  80 2.74  71 2.74  40 2.78  34 2.78  36 2.79   1 2.80  13 2.80
                            72 2.80  73 2.81  15 2.81  41 2.81
  44  0.538  0.117  0.023-  19 2.78   7 2.78  53 2.80  16 2.80  42 2.80  75 2.80  74 2.81   4 2.81
                            18 2.81
  45  0.869  0.452  0.126-  77 2.73  12 2.74  67 2.74  58 2.78  64 2.79  10 2.79  11 2.80  21 2.80
                            25 2.81  22 2.81  46 2.81  54 2.81
  46  0.119  0.452  0.127-  62 2.73  76 2.74  12 2.74   6 2.78  10 2.78  18 2.79  54 2.80  70 2.80
                            61 2.80  21 2.81  45 2.81  53 2.81
  47  0.035  0.120  0.327-  77 2.73  65 2.74  26 2.74  29 2.78  33 2.79  32 2.79  23 2.80  63 2.81
                            72 2.81   2 2.81  13 2.81   9 2.81
  48  0.038  0.118  0.023-  49 2.78  54 2.78  11 2.79  10 2.80  24 2.80  16 2.81  74 2.81   5 2.81
                            64 2.81
  49  0.120  0.952  0.126-  68 2.73  26 2.74  65 2.74  48 2.78   5 2.78  24 2.79  60 2.80   8 2.80
                            11 2.81  54 2.81  78 2.81  70 2.81
  50  0.367  0.453  0.430-  15 2.78  57 2.78  41 2.79  28 2.80  37 2.80  38 2.80  39 2.81  40 2.81
                            36 2.81
  51  0.452  0.536  0.227-  61 2.73  14 2.74  41 2.74  60 2.74  57 2.74  22 2.75  66 2.80  80 2.80
                            67 2.80  76 2.81  68 2.81  79 2.81
  52  0.617  0.703  0.430-  14 2.78  73 2.78  56 2.79  35 2.80  37 2.80  38 2.80  34 2.81  30 2.81
                            31 2.81
  53  0.370  0.202  0.127-  69 2.73  80 2.73  62 2.74  18 2.78  16 2.78  44 2.80   7 2.80  61 2.80
                            54 2.80  19 2.81  46 2.81   8 2.81
  54  0.120  0.202  0.126-  26 2.73  62 2.74  77 2.74  10 2.78  48 2.78  16 2.79  46 2.80  53 2.80
                             8 2.81  11 2.81  49 2.81  45 2.81
  55  0.951  0.786  0.227-  78 2.73  21 2.74   3 2.74   2 2.74   1 2.74  70 2.74  71 2.80  12 2.80
                            68 2.81  20 2.81  76 2.81  65 2.81
  56  0.784  0.620  0.327-  67 2.74  20 2.74  12 2.74  35 2.78  30 2.78  52 2.79  63 2.80   1 2.80
                            73 2.80  14 2.80   3 2.81   9 2.81
  57  0.284  0.620  0.327-  76 2.74  68 2.74  51 2.74  50 2.78  37 2.78  39 2.79  14 2.80  23 2.80
                            15 2.80   2 2.81  41 2.81   3 2.81
  58  0.787  0.617  0.023-  45 2.78  21 2.78  25 2.79  75 2.80  64 2.80   4 2.81  10 2.81   6 2.81
                            17 2.81
  59  0.287  0.617  0.023-  60 2.78  61 2.78  70 2.79  18 2.80  17 2.80   6 2.80   5 2.81  42 2.81
                            24 2.81
  60  0.369  0.702  0.126-  66 2.73  51 2.74  68 2.74  59 2.78  24 2.78  17 2.79  49 2.80  25 2.80
                            61 2.80  70 2.80  22 2.81   8 2.81
  61  0.369  0.452  0.127-  80 2.73  51 2.73  76 2.75  59 2.78  18 2.78  42 2.80  53 2.80  22 2.80
                            60 2.80  46 2.80  70 2.81   7 2.81
  62  0.202  0.286  0.227-  46 2.73  13 2.74  15 2.74  54 2.74   9 2.74  53 2.74  76 2.80  80 2.80
                            69 2.80  26 2.81  77 2.81  12 2.81
  63  0.785  0.370  0.327-  67 2.73  79 2.74  77 2.74  30 2.78  32 2.78  38 2.79  56 2.80  41 2.80
                            47 2.81  72 2.81  14 2.81   9 2.81
  64  0.787  0.367  0.023-  11 2.78  45 2.79  22 2.79  74 2.80  58 2.80  42 2.81  10 2.81  48 2.81
                            17 2.81
  65  0.952  0.036  0.227-  11 2.73  78 2.74  47 2.74   2 2.74  49 2.74  72 2.74  68 2.80  79 2.80
                            26 2.81  77 2.81  71 2.81  55 2.81
[...]
   -.532E+00 0.468E+00 -.132E+04   0.364E+00 -.353E+00 0.132E+04   0.250E-01 -.288E-01 0.709E+00   0.153E+00 -.966E-01 -.142E+00
   -.489E+00 -.582E+00 0.260E+04   0.463E+00 0.621E+00 -.260E+04   -.343E-01 0.607E-01 -.144E+01   0.535E-01 -.896E-01 0.325E-01
   -.122E-01 0.708E+00 0.260E+04   0.694E-01 -.661E+00 -.260E+04   -.201E-01 -.183E-01 -.145E+01   -.395E-01 -.328E-01 0.593E-01
   0.101E+00 0.156E-01 0.260E+04   -.254E-01 -.645E-01 -.260E+04   -.283E-01 0.270E-01 -.145E+01   -.451E-01 0.257E-01 0.681E-01
   -.770E-01 0.262E-01 0.132E+04   0.367E-01 -.455E-01 -.132E+04   -.105E-01 0.232E-02 -.695E+00   0.496E-01 0.165E-01 -.488E-01
   0.197E+00 -.258E+00 0.132E+04   -.109E+00 0.299E+00 -.132E+04   -.128E-01 0.275E-02 -.713E+00   -.754E-01 -.486E-01 0.378E-01
   -.156E+00 0.304E+00 -.132E+04   0.435E-03 -.320E+00 0.132E+04   -.949E-02 -.153E-01 0.706E+00   0.163E+00 0.286E-01 -.121E+00
   -.250E+00 -.241E-01 0.260E+04   0.296E+00 -.769E-01 -.260E+04   -.418E-02 0.224E-01 -.145E+01   -.470E-01 0.794E-01 0.440E-01
   0.129E+00 0.153E+00 0.132E+04   -.180E+00 -.155E+00 -.132E+04   -.187E-01 -.105E-01 -.710E+00   0.690E-01 0.567E-02 -.759E-03
   -.411E+00 0.354E+00 -.982E+00   0.270E+00 -.331E+00 0.102E+01   0.220E-03 -.690E-02 -.101E-01   0.141E+00 -.178E-01 -.289E-01
   0.127E+00 -.387E+00 -.132E+04   -.514E-01 0.341E+00 0.132E+04   -.631E-02 0.311E-02 0.702E+00   -.738E-01 0.462E-01 -.375E-01
   0.148E+00 0.192E+00 -.132E+04   0.756E-02 -.259E+00 0.132E+04   0.173E-01 -.125E-01 0.706E+00   -.168E+00 0.768E-01 -.397E-01
   0.285E+00 0.394E-01 -.132E+04   -.198E+00 -.194E+00 0.132E+04   -.198E-01 -.872E-02 0.703E+00   -.757E-01 0.162E+00 -.527E-01
   0.959E+00 -.124E+01 0.260E+04   -.861E+00 0.119E+01 -.260E+04   -.628E-01 0.342E-01 -.144E+01   -.506E-01 0.139E-01 -.638E-02
   -.158E+00 -.164E-01 0.260E+04   0.119E+00 0.245E-01 -.260E+04   0.101E-01 0.302E-01 -.144E+01   0.344E-01 -.307E-01 0.307E-01
   0.321E+00 0.326E+00 0.260E+04   -.266E+00 -.402E+00 -.260E+04   -.144E-01 -.289E-02 -.144E+01   -.446E-01 0.819E-01 0.137E-01
   -.424E+00 -.334E+00 0.132E+04   0.371E+00 0.417E+00 -.132E+04   0.722E-02 0.140E-01 -.705E+00   0.525E-01 -.943E-01 -.397E-01
   -.603E+00 -.326E+00 0.225E+01   0.514E+00 0.445E+00 -.219E+01   0.215E-01 0.234E-02 0.263E-01   0.768E-01 -.116E+00 -.785E-01
   -.322E+00 0.277E-01 0.132E+04   0.236E+00 0.363E-01 -.132E+04   0.162E-01 0.997E-02 -.709E+00   0.811E-01 -.720E-01 0.154E-01
   -.147E+00 0.483E+00 0.132E+04   0.967E-01 -.536E+00 -.132E+04   0.559E-02 -.165E-01 -.710E+00   0.475E-01 0.589E-01 -.338E-01
   0.284E+00 -.833E-01 -.132E+04   -.210E+00 0.160E+00 0.132E+04   0.262E-02 -.440E-02 0.710E+00   -.817E-01 -.706E-01 -.578E-01
   0.596E+00 -.178E+00 0.260E+04   -.534E+00 0.184E+00 -.260E+04   -.331E-01 0.188E-01 -.144E+01   -.340E-01 -.273E-01 0.298E-01
   -.404E+00 0.149E+00 0.132E+04   0.371E+00 -.735E-01 -.132E+04   0.222E-01 0.758E-02 -.705E+00   0.196E-01 -.795E-01 -.366E-01
   0.462E+00 0.510E-01 -.378E+00   -.386E+00 -.995E-02 0.333E+00   -.400E-02 -.228E-01 -.256E-02   -.758E-01 -.291E-01 0.476E-01
   -.121E+00 -.196E+00 -.260E+04   0.921E-02 0.319E+00 0.260E+04   0.180E-01 -.869E-02 0.144E+01   0.102E+00 -.117E+00 -.654E-02
   0.682E+00 0.569E+00 -.260E+04   -.773E+00 -.537E+00 0.260E+04   -.267E-01 -.398E-01 0.144E+01   0.112E+00 0.117E-02 -.128E+00
   -.440E-01 -.953E-01 -.260E+04   -.982E-01 0.226E+00 0.260E+04   0.508E-01 -.166E-01 0.144E+01   0.995E-01 -.123E+00 -.879E-01
   0.112E+00 -.132E+00 -.260E+04   -.196E+00 0.109E+00 0.260E+04   -.978E-02 0.218E-01 0.144E+01   0.938E-01 0.605E-02 -.516E-01
   -.634E+00 -.673E-02 -.260E+04   0.685E+00 0.291E-01 0.260E+04   0.608E-01 -.311E-01 0.144E+01   -.102E+00 0.346E-02 -.744E-01
   0.254E+00 0.404E+00 -.260E+04   -.362E+00 -.368E+00 0.260E+04   0.103E-01 -.943E-02 0.144E+01   0.957E-01 -.218E-01 0.140E-02
   0.243E+00 0.165E+00 -.260E+04   -.355E+00 -.115E+00 0.260E+04   0.326E-03 -.271E-01 0.145E+01   0.109E+00 -.252E-01 -.779E-01
   -.146E+00 -.384E+00 -.260E+04   0.236E+00 0.379E+00 0.260E+04   0.142E-01 0.490E-03 0.144E+01   -.104E+00 0.764E-02 -.167E-02
   -.100E+01 0.815E-01 -.260E+04   0.846E+00 0.261E-01 0.260E+04   0.613E-01 -.600E-02 0.144E+01   0.101E+00 -.971E-01 -.660E-01
   -.405E-01 -.237E+00 -.260E+04   0.124E+00 0.132E+00 0.260E+04   0.151E-01 0.739E-02 0.144E+01   -.956E-01 0.969E-01 -.583E-01
   0.560E+00 0.361E+00 -.260E+04   -.439E+00 -.343E+00 0.260E+04   -.822E-02 -.286E-01 0.144E+01   -.106E+00 0.845E-02 -.124E+00
   -.120E+00 0.182E+00 -.260E+04   0.210E+00 -.310E+00 0.260E+04   0.154E-01 0.127E-01 0.144E+01   -.111E+00 0.123E+00 -.362E-01
   0.122E-01 -.571E+00 -.260E+04   -.136E+00 0.665E+00 0.260E+04   0.200E-01 -.626E-03 0.145E+01   0.110E+00 -.975E-01 -.136E+00
   -.436E+00 0.104E+00 -.260E+04   0.518E+00 -.195E+00 0.260E+04   0.236E-01 0.300E-03 0.144E+01   -.108E+00 0.103E+00 0.180E-01
   0.248E+00 0.156E+00 -.132E+04   -.953E-01 -.367E+00 0.132E+04   0.155E-03 -.984E-02 0.713E+00   -.153E+00 0.220E+00 -.232E-01
   0.729E+00 -.358E+00 0.260E+04   -.754E+00 0.272E+00 -.260E+04   -.320E-01 0.566E-01 -.144E+01   0.567E-01 0.384E-01 -.220E-02
   0.275E+00 -.547E+00 -.132E+04   -.113E+00 0.453E+00 0.132E+04   -.818E-02 0.114E-01 0.717E+00   -.160E+00 0.869E-01 -.187E-01
   -.171E-01 -.846E+00 0.260E+04   -.436E-02 0.847E+00 -.260E+04   -.256E-01 0.266E-01 -.144E+01   0.406E-01 -.201E-01 -.248E-01
   -.523E-01 0.245E+00 0.132E+04   -.619E-03 -.271E+00 -.132E+04   0.300E-02 -.706E-02 -.714E+00   0.508E-01 0.278E-01 0.508E-02
   0.851E-01 0.439E-01 0.132E+04   -.197E-01 -.160E+00 -.132E+04   -.951E-02 -.149E-02 -.724E+00   -.567E-01 0.115E+00 0.944E-01
   -.979E-01 -.747E-01 -.132E+04   -.659E-01 0.179E+00 0.132E+04   0.748E-02 -.883E-02 0.726E+00   0.157E+00 -.963E-01 -.121E+00
   0.104E+00 -.516E+00 0.260E+04   -.330E-01 0.475E+00 -.260E+04   -.442E-01 0.152E-01 -.145E+01   -.336E-01 0.246E-01 0.260E-01
   0.307E+00 -.228E+00 0.132E+04   -.238E+00 0.275E+00 -.132E+04   -.161E-01 0.534E-02 -.704E+00   -.528E-01 -.511E-01 0.890E-01
   -.521E+00 0.432E+00 -.260E+04   0.591E+00 -.526E+00 0.260E+04   0.221E-01 -.280E-01 0.144E+01   -.919E-01 0.119E+00 -.109E+00
   -.563E-02 0.262E+00 -.101E+01   0.114E+00 -.390E+00 0.977E+00   0.138E-01 -.418E-02 -.141E-01   -.120E+00 0.134E+00 0.444E-01
   -.234E+00 -.290E-02 -.260E+04   0.323E+00 -.829E-02 0.260E+04   0.221E-01 0.818E-02 0.144E+01   -.108E+00 0.110E-01 -.501E-01
   0.201E-01 -.111E+00 0.132E+04   0.474E-01 0.430E-01 -.132E+04   -.160E-01 -.468E-02 -.723E+00   -.524E-01 0.682E-01 0.509E-01
   0.344E+00 -.754E-01 0.132E+04   -.258E+00 0.124E-01 -.132E+04   -.271E-01 -.143E-02 -.714E+00   -.651E-01 0.612E-01 0.662E-01
   -.173E+00 0.233E+00 0.494E+00   0.321E-01 -.632E-01 -.434E+00   0.104E-01 -.167E-01 -.243E-02   0.130E+00 -.158E+00 -.596E-01
   -.439E+00 0.349E+00 -.132E+04   0.340E+00 -.294E+00 0.132E+04   0.301E-01 -.140E-01 0.720E+00   0.781E-01 -.469E-01 -.111E+00
   0.211E+00 0.214E+00 -.132E+04   -.146E+00 -.242E+00 0.132E+04   0.753E-02 -.144E-01 0.713E+00   -.698E-01 0.377E-01 -.655E-01
   -.416E+00 0.719E+00 0.260E+04   0.377E+00 -.689E+00 -.260E+04   -.880E-02 0.139E-01 -.144E+01   0.443E-01 -.361E-01 0.484E-01
   0.543E+00 -.172E+00 0.260E+04   -.490E+00 0.125E+00 -.260E+04   -.185E-01 0.278E-01 -.144E+01   -.340E-01 0.260E-01 0.451E-01
   0.804E-01 0.808E-01 0.132E+04   -.380E-01 -.838E-01 -.132E+04   0.198E-01 -.137E-02 -.709E+00   -.523E-01 0.512E-04 0.724E-01
[...]
   0.101E+00 0.511E+00 0.657E+00   -.146E+00 -.511E+00 -.584E+00   0.102E-02 -.106E-02 -.548E-02   0.408E-01 -.433E-03 -.741E-01
   -.528E-01 -.327E-01 -.752E+00   0.899E-01 0.930E-01 0.700E+00   0.271E-01 -.198E-01 -.747E-02   -.526E-01 -.475E-01 0.564E-01
   -.228E+00 -.308E+00 0.178E-01   0.349E+00 0.277E+00 -.339E-01   0.558E-02 -.346E-02 -.710E-02   -.122E+00 0.350E-01 0.189E-01
   0.783E-01 0.415E-01 0.132E+04   -.229E-01 -.535E-01 -.132E+04   0.187E-02 0.325E-02 -.719E+00   -.548E-01 0.818E-02 0.105E+00
   -.353E-02 -.542E-01 0.269E+01   -.604E-01 0.150E+00 -.260E+01   -.297E-02 0.228E-03 0.188E-01   0.635E-01 -.955E-01 -.108E+00
   -.107E+00 0.118E+00 -.132E+04   0.236E-01 -.681E-01 0.132E+04   0.378E-02 -.139E-01 0.735E+00   0.785E-01 -.395E-01 -.980E-01
   0.280E-01 -.380E+00 -.132E+04   0.104E+00 0.396E+00 0.132E+04   0.231E-01 0.111E-01 0.724E+00   -.153E+00 -.189E-01 -.252E-01
   0.190E+00 -.320E+00 0.260E+04   -.216E+00 0.309E+00 -.260E+04   -.421E-01 0.355E-01 -.145E+01   0.511E-01 -.170E-01 0.474E-02
   0.573E+00 0.106E+00 0.260E+04   -.555E+00 -.368E-01 -.260E+04   -.456E-01 0.109E-01 -.144E+01   0.229E-01 -.794E-01 -.830E-03
   0.902E-01 0.357E+00 -.306E+01   -.405E-01 -.441E+00 0.299E+01   0.152E-01 -.104E-01 -.276E-01   -.609E-01 0.884E-01 0.915E-01
   0.133E+00 0.232E+00 -.713E-01   -.244E+00 -.236E+00 0.136E+00   -.122E-01 -.996E-02 -.818E-02   0.114E+00 0.962E-02 -.616E-01
   -.424E-01 -.156E+00 0.132E+04   -.246E-01 0.269E+00 -.132E+04   -.381E-02 0.260E-02 -.704E+00   0.736E-01 -.119E+00 0.119E-01
   -.717E-01 0.401E-02 0.230E+01   0.126E-01 -.659E-01 -.222E+01   -.711E-02 -.270E-02 0.248E-01   0.690E-01 0.650E-01 -.104E+00
   0.473E+00 -.119E+00 -.989E+00   -.332E+00 -.423E-01 0.971E+00   -.209E-01 -.673E-03 -.131E-01   -.132E+00 0.163E+00 0.245E-01
   0.669E-02 -.626E-02 0.160E+01   -.940E-13 0.578E-12 0.114E-10   0.168E-01 -.317E-02 -.589E-01   -.122E-02 0.143E-02 -.160E+01

 POSITION                                       TOTAL-FORCE (eV/Angst)
     13.67634      8.44946      7.19038         0.006101      0.002807     -0.016685
      5.26208      8.45181      7.19252         0.002479      0.003540     -0.020095
      3.85965      6.02357      7.19553         0.008849     -0.010547     -0.017232
     13.70600      8.42786      0.51320        -0.007646      0.009339      0.034936
      5.28952      8.43447      0.51701        -0.003785     -0.003031      0.026010
      3.88371      6.00123      0.51983         0.001505      0.003629      0.020320
      8.08657      1.95994      2.77776        -0.002136     -0.000584      0.026729
      9.48882      9.24928      2.77921        -0.000944     -0.003908      0.019407
      2.46475      3.59284      7.19505        -0.002597     -0.002719     -0.018525
      2.48099      3.57332      0.52174        -0.005349      0.001032      0.016902
     10.89404      1.96263      2.77896        -0.000513     -0.006168      0.017850
     13.68689      5.20832      4.98903         0.000568     -0.001598     -0.004200
      3.86577      1.16027      7.19622        -0.004283      0.003516     -0.019358
      9.47092      6.02046      7.19558         0.004472     -0.003278     -0.022632
      5.27125      3.59144      7.19745        -0.008684     -0.001061     -0.022831
      3.89023      1.14293      0.51828        -0.015399      0.002224      0.021502
      9.48981      6.00112      0.51250         0.004140      0.007606      0.035693
      5.28621      3.57457      0.52068        -0.004088      0.004495      0.019902
     12.29198      9.24781      2.77661         0.006031      0.002733      0.024046
     12.27865      7.63452      4.98321         0.009401      0.004347      0.007690
     13.69132      6.81939      2.77969         0.011635      0.002255      0.021601
      9.48403      4.39243      2.77879         0.002724     -0.010437      0.023120
      8.06879      8.45129      7.19500        -0.004941      0.002125     -0.020886
      8.09474      8.43327      0.51424        -0.006109     -0.001681      0.031333
     10.88314      6.81959      2.77633         0.008407      0.003131      0.020224
      2.46881      0.34842      4.98773        -0.004252     -0.010395      0.000208
     15.07596      9.26249      9.45325         0.008829     -0.003436     -0.021441
      3.86351      4.40675      9.45983        -0.005747     -0.005621     -0.036430
      6.65814      9.26538      9.45642         0.007276     -0.008486     -0.028827
     12.27799      4.40027      9.45651        -0.000076      0.003471     -0.023284
      9.46377      9.26446      9.46099         0.009202     -0.004833     -0.035451
     10.87224      1.97299      9.45394        -0.000587      0.005458     -0.021106
      2.45687      1.97576      9.45681        -0.002284     -0.002065     -0.027976
     12.27086      9.26033      9.45721         0.002061      0.003453     -0.025898
     13.67214      6.83288      9.45734         0.006190      0.004760     -0.026956
      5.26286      1.97258      9.45983         0.002846     -0.001370     -0.037259
      8.06681      6.83583      9.46212         0.006537     -0.002037     -0.039917
      9.47080      4.40034      9.45834        -0.005613      0.006711     -0.031564
      5.25896      6.83491      9.45835         0.005436     -0.004493     -0.029340
      8.06600      1.97145      9.45502        -0.002631      0.011353     -0.024765
      8.07404      3.59114      7.19380        -0.001393     -0.001058     -0.015450
      8.09194      3.56958      0.51572        -0.000798      0.009337      0.029446
      6.67005      1.15782      7.19250        -0.006465      0.004097     -0.015329
      6.69247      1.14127      0.51484        -0.007119      0.007664      0.032283
     12.29094      4.39199      2.78131         0.000945     -0.004976      0.017219
      3.87583      4.39127      2.78580        -0.000833     -0.002898      0.014402
      1.05874      1.16198      7.19112         0.000354     -0.001605     -0.008035
      1.08436      1.14436      0.51829        -0.007014     -0.000957      0.021914
      6.68427      9.25092      2.77981        -0.000247      0.000701      0.025083
      6.66629      4.40534      9.46174        -0.000553     -0.002750     -0.037674
      8.07447      5.20797      4.98898         0.002209      0.000417     -0.005366
     10.86931      6.83050      9.45977         0.002695      0.007581     -0.029761
      5.28268      1.96119      2.78306        -0.001603     -0.003777      0.015098
      2.47857      1.96192      2.78329        -0.006477     -0.002854      0.016657
     15.08697      7.63791      4.98649        -0.000575     -0.005125     -0.001157
     12.27542      6.02058      7.19291         0.008763     -0.005483     -0.011364
      6.66773      6.02298      7.19705         0.002247     -0.004140     -0.014569
     12.29792      6.00170      0.51416        -0.004096      0.007692      0.034820
      6.68713      6.00173      0.51699        -0.000257      0.007041      0.025845
      8.07923      6.82125      2.77957         0.009641     -0.004137      0.021695
[...]
      9.47426      7.63591      4.98609         0.006823      0.000215      0.000332
     10.87981      5.20759      4.98642        -0.003357     -0.001938     -0.005676
      6.67029      7.63820      4.98831         0.011537     -0.007104     -0.002608
      5.27182      0.34549      4.98723         0.003537      0.000917     -0.003538
      5.27570      6.82108      2.78266         0.002488     -0.000111      0.015341
      8.07726      0.34560      4.98271        -0.003359      0.000446      0.000910
      9.47455      1.16152      7.18802        -0.000817     -0.003736     -0.003028
     10.87195      8.44785      7.19347         0.003320      0.008627     -0.010501
      9.49980      1.14090      0.51515        -0.017011      0.007919      0.029084
     10.90061      8.43180      0.51052        -0.004689      0.001407      0.036690
      5.27047      5.20853      4.99231         0.003795     -0.006251     -0.009698
     12.29003      2.77886      4.98745        -0.009300     -0.004530     -0.004436
     15.09908      9.24940      2.77797         0.001949     -0.003491      0.022060
      9.48265      2.77729      4.98310         0.002373      0.000016      0.007548
      6.67905      2.77603      4.98880        -0.012367      0.000915     -0.006043
    total drift:                                0.022238     -0.007996     -0.055755

  FREE ENERGIE OF THE ION-ELECTRON SYSTEM (eV)
  free  energy   TOTEN  =      -512.67648420 eV

  energy  without entropy=     -512.40459505  energy(sigma->0) =     -512.58585448

 d Force = 0.2762007E-02[ 0.231E-02, 0.322E-02]  d Energy = 0.2943319E-02-0.181E-03
 d Force =-0.1731379E+03[-0.173E+03,-0.173E+03]  d Ewald  =-0.1731379E+03-0.297E-05

 Steepest descent step on ions:
 trial-energy change:   -0.002943  1 .order   -0.002762   -0.003217   -0.002307
  (g-gl).g = 0.322E-02      g.g   = 0.322E-02  gl.gl    = 0.000E+00
 g(Force)  = 0.322E-02   g(Stress)= 0.000E+00 ortho     = 0.000E+00
 gamma     =   0.00000
 trial     =   1.00000
 opt step  =   1.80306  (harmonic =   3.53258) maximal distance =0.00417113
 next E    =  -512.677504   (d E  =  -0.00396)

 reached required accuracy - stopping structural energy minimisation